% Generated by SafeDSE build_dzn.py -- do not edit by hand.
% applications : g
% platform     : synthetic_3type
% period mode  : global
% fault model  : random_hw
% cost profile : myklebust2015  [100, 113, 225, 518, 906]

% ---- applications ----
nApps = 1;
n = 99;
app = [1, 1, 1, 1, 1, 1, 1, 1, 1, 1, 1, 1, 1, 1, 1, 1, 1, 1, 1, 1, 1, 1, 1, 1, 1, 1, 1, 1, 1, 1, 1, 1, 1, 1, 1, 1, 1, 1, 1, 1, 1, 1, 1, 1, 1, 1, 1, 1, 1, 1, 1, 1, 1, 1, 1, 1, 1, 1, 1, 1, 1, 1, 1, 1, 1, 1, 1, 1, 1, 1, 1, 1, 1, 1, 1, 1, 1, 1, 1, 1, 1, 1, 1, 1, 1, 1, 1, 1, 1, 1, 1, 1, 1, 1, 1, 1, 1, 1, 1];
nParents = 99;
parent = [1, 2, 3, 4, 5, 6, 7, 8, 9, 10, 11, 12, 13, 14, 15, 16, 17, 18, 19, 20, 21, 22, 23, 24, 25, 26, 27, 28, 29, 30, 31, 32, 33, 34, 35, 36, 37, 38, 39, 40, 41, 42, 43, 44, 45, 46, 47, 48, 49, 50, 51, 52, 53, 54, 55, 56, 57, 58, 59, 60, 61, 62, 63, 64, 65, 66, 67, 68, 69, 70, 71, 72, 73, 74, 75, 76, 77, 78, 79, 80, 81, 82, 83, 84, 85, 86, 87, 88, 89, 90, 91, 92, 93, 94, 95, 96, 97, 98, 99];
copy_index = [0, 0, 0, 0, 0, 0, 0, 0, 0, 0, 0, 0, 0, 0, 0, 0, 0, 0, 0, 0, 0, 0, 0, 0, 0, 0, 0, 0, 0, 0, 0, 0, 0, 0, 0, 0, 0, 0, 0, 0, 0, 0, 0, 0, 0, 0, 0, 0, 0, 0, 0, 0, 0, 0, 0, 0, 0, 0, 0, 0, 0, 0, 0, 0, 0, 0, 0, 0, 0, 0, 0, 0, 0, 0, 0, 0, 0, 0, 0, 0, 0, 0, 0, 0, 0, 0, 0, 0, 0, 0, 0, 0, 0, 0, 0, 0, 0, 0, 0];
node_name = ["g.a0", "g.a1", "g.a2", "g.a3", "g.a4", "g.a5", "g.a6", "g.a7", "g.a8", "g.a9", "g.a10", "g.a11", "g.a12", "g.a13", "g.a14", "g.a15", "g.a16", "g.a17", "g.a18", "g.a19", "g.a20", "g.a21", "g.a22", "g.a23", "g.a24", "g.a25", "g.a26", "g.a27", "g.a28", "g.a29", "g.a0~0", "g.a0~1", "g.a0~2", "g.a0~3", "g.a0~4", "g.a1~0", "g.a1~1", "g.a1~2", "g.a1~3", "g.a1~4", "g.a2~0", "g.a2~1", "g.a2~2", "g.a2~3", "g.a2~4", "g.a3~0", "g.a3~1", "g.a3~2", "g.a3~3", "g.a3~4", "g.a4~0", "g.a4~1", "g.a4~2", "g.a4~3", "g.a4~4", "g.a5~0", "g.a5~1", "g.a5~2", "g.a5~3", "g.a5~4", "g.a6~0", "g.a6~1", "g.a6~2", "g.a6~3", "g.a6~4", "g.a7~0", "g.a7~1", "g.a7~2", "g.a7~3", "g.a7~4", "g.a8~0", "g.a9~0", "g.a10~0", "g.a11~0", "g.a12~0", "g.a13~0", "g.a14~0", "g.a15~0", "g.a16~0", "g.a16~1", "g.a17~0", "g.a18~0", "g.a18~1", "g.a19~0", "g.a20~0", "g.a20~1", "g.a21~0", "g.a22~0", "g.a22~1", "g.a23~0", "g.a24~0", "g.a24~1", "g.a25~0", "g.a26~0", "g.a26~1", "g.a27~0", "g.a28~0", "g.a28~1", "g.a29~0"];
parent_name = ["g.a0", "g.a1", "g.a2", "g.a3", "g.a4", "g.a5", "g.a6", "g.a7", "g.a8", "g.a9", "g.a10", "g.a11", "g.a12", "g.a13", "g.a14", "g.a15", "g.a16", "g.a17", "g.a18", "g.a19", "g.a20", "g.a21", "g.a22", "g.a23", "g.a24", "g.a25", "g.a26", "g.a27", "g.a28", "g.a29", "g.a0~0", "g.a0~1", "g.a0~2", "g.a0~3", "g.a0~4", "g.a1~0", "g.a1~1", "g.a1~2", "g.a1~3", "g.a1~4", "g.a2~0", "g.a2~1", "g.a2~2", "g.a2~3", "g.a2~4", "g.a3~0", "g.a3~1", "g.a3~2", "g.a3~3", "g.a3~4", "g.a4~0", "g.a4~1", "g.a4~2", "g.a4~3", "g.a4~4", "g.a5~0", "g.a5~1", "g.a5~2", "g.a5~3", "g.a5~4", "g.a6~0", "g.a6~1", "g.a6~2", "g.a6~3", "g.a6~4", "g.a7~0", "g.a7~1", "g.a7~2", "g.a7~3", "g.a7~4", "g.a8~0", "g.a9~0", "g.a10~0", "g.a11~0", "g.a12~0", "g.a13~0", "g.a14~0", "g.a15~0", "g.a16~0", "g.a16~1", "g.a17~0", "g.a18~0", "g.a18~1", "g.a19~0", "g.a20~0", "g.a20~1", "g.a21~0", "g.a22~0", "g.a22~1", "g.a23~0", "g.a24~0", "g.a24~1", "g.a25~0", "g.a26~0", "g.a26~1", "g.a27~0", "g.a28~0", "g.a28~1", "g.a29~0"];
tok = array2d(1..99, 1..99,
  [| 1, 0, -1, -1, -1, -1, -1, -1, -1, -1, -1, -1, -1, -1, -1, -1, -1, -1, -1, -1, -1, -1, -1, -1, -1, -1, -1, -1, -1, -1, 0, 0, 0, -1, -1, 0, 0, 0, 0, 0, -1, -1, -1, -1, -1, -1, -1, -1, -1, -1, -1, -1, -1, -1, -1, -1, -1, -1, -1, -1, -1, -1, -1, -1, -1, -1, -1, -1, -1, -1, -1, -1, -1, -1, -1, -1, -1, -1, -1, -1, -1, -1, -1, -1, -1, -1, -1, -1, -1, -1, -1, -1, -1, -1, -1, -1, -1, -1, -1
       | -1, 1, 2, -1, -1, 1, -1, -1, -1, -1, -1, -1, -1, -1, -1, -1, -1, -1, -1, -1, -1, -1, -1, -1, -1, -1, 2, -1, -1, -1, -1, -1, -1, -1, -1, 0, 0, 0, -1, -1, 2, 2, 2, 2, 2, -1, -1, -1, -1, -1, -1, -1, -1, -1, -1, 1, 1, 1, 1, 1, -1, -1, -1, -1, -1, -1, -1, -1, -1, -1, -1, -1, -1, -1, -1, -1, -1, -1, -1, -1, -1, -1, -1, -1, -1, -1, -1, -1, -1, -1, -1, -1, -1, 2, 2, -1, -1, -1, -1
       | -1, -1, 1, -1, -1, -1, -1, -1, -1, 0, -1, -1, -1, -1, -1, 0, -1, -1, -1, -1, -1, -1, -1, -1, -1, -1, -1, -1, -1, -1, -1, -1, -1, -1, -1, -1, -1, -1, -1, -1, 0, 0, 0, -1, -1, -1, -1, -1, -1, -1, -1, -1, -1, -1, -1, -1, -1, -1, -1, -1, -1, -1, -1, -1, -1, -1, -1, -1, -1, -1, -1, 0, -1, -1, -1, -1, -1, 0, -1, -1, -1, -1, -1, -1, -1, -1, -1, -1, -1, -1, -1, -1, -1, -1, -1, -1, -1, -1, -1
       | -1, -1, 0, 1, 0, -1, -1, -1, -1, -1, -1, -1, -1, -1, -1, -1, -1, -1, -1, -1, -1, -1, -1, -1, -1, -1, -1, -1, -1, -1, -1, -1, -1, -1, -1, -1, -1, -1, -1, -1, 0, 0, 0, 0, 0, 0, 0, 0, -1, -1, 0, 0, 0, 0, 0, -1, -1, -1, -1, -1, -1, -1, -1, -1, -1, -1, -1, -1, -1, -1, -1, -1, -1, -1, -1, -1, -1, -1, -1, -1, -1, -1, -1, -1, -1, -1, -1, -1, -1, -1, -1, -1, -1, -1, -1, -1, -1, -1, -1
       | -1, -1, -1, -1, 1, -1, 0, -1, -1, -1, -1, -1, -1, -1, -1, -1, -1, -1, -1, -1, -1, -1, -1, -1, -1, -1, -1, -1, -1, -1, -1, -1, -1, -1, -1, -1, -1, -1, -1, -1, -1, -1, -1, -1, -1, -1, -1, -1, -1, -1, 0, 0, 0, -1, -1, -1, -1, -1, -1, -1, 0, 0, 0, 0, 0, -1, -1, -1, -1, -1, -1, -1, -1, -1, -1, -1, -1, -1, -1, -1, -1, -1, -1, -1, -1, -1, -1, -1, -1, -1, -1, -1, -1, -1, -1, -1, -1, -1, -1
       | -1, -1, -1, 1, -1, 1, -1, 0, -1, -1, -1, -1, -1, -1, -1, -1, -1, -1, -1, -1, -1, -1, -1, -1, -1, -1, -1, -1, -1, -1, -1, -1, -1, -1, -1, -1, -1, -1, -1, -1, -1, -1, -1, -1, -1, 1, 1, 1, 1, 1, -1, -1, -1, -1, -1, 0, 0, 0, -1, -1, -1, -1, -1, -1, -1, 0, 0, 0, 0, 0, -1, -1, -1, -1, -1, -1, -1, -1, -1, -1, -1, -1, -1, -1, -1, -1, -1, -1, -1, -1, -1, -1, -1, -1, -1, -1, -1, -1, -1
       | -1, -1, -1, -1, -1, -1, 1, -1, -1, -1, 0, -1, -1, -1, -1, -1, -1, -1, -1, -1, -1, -1, -1, -1, -1, -1, -1, -1, -1, -1, -1, -1, -1, -1, -1, -1, -1, -1, -1, -1, -1, -1, -1, -1, -1, -1, -1, -1, -1, -1, -1, -1, -1, -1, -1, -1, -1, -1, -1, -1, 0, 0, 0, -1, -1, -1, -1, -1, -1, -1, -1, -1, 0, -1, -1, -1, -1, -1, -1, -1, -1, -1, -1, -1, -1, -1, -1, -1, -1, -1, -1, -1, -1, -1, -1, -1, -1, -1, -1
       | -1, -1, -1, -1, -1, -1, -1, 1, 0, -1, -1, -1, -1, -1, 0, -1, -1, -1, -1, 0, -1, -1, -1, -1, -1, -1, -1, -1, -1, -1, -1, -1, -1, -1, -1, -1, -1, -1, -1, -1, -1, -1, -1, -1, -1, -1, -1, -1, -1, -1, -1, -1, -1, -1, -1, -1, -1, -1, -1, -1, -1, -1, -1, -1, -1, 0, 0, 0, -1, -1, 0, -1, -1, -1, -1, -1, 0, -1, -1, -1, -1, -1, -1, 0, -1, -1, -1, -1, -1, -1, -1, -1, -1, -1, -1, -1, -1, -1, -1
       | -1, -1, -1, -1, -1, -1, -1, -1, 1, -1, -1, -1, -1, -1, -1, -1, -1, -1, -1, -1, 1, -1, -1, -1, -1, -1, -1, -1, -1, -1, -1, -1, -1, -1, -1, -1, -1, -1, -1, -1, -1, -1, -1, -1, -1, -1, -1, -1, -1, -1, -1, -1, -1, -1, -1, -1, -1, -1, -1, -1, -1, -1, -1, -1, -1, -1, -1, -1, -1, -1, 0, -1, -1, -1, -1, -1, -1, -1, -1, -1, -1, -1, -1, -1, 1, 1, -1, -1, -1, -1, -1, -1, -1, -1, -1, -1, -1, -1, -1
       | -1, -1, -1, -1, 0, -1, -1, -1, -1, 1, -1, -1, -1, 0, -1, -1, -1, -1, -1, -1, -1, -1, -1, -1, -1, -1, -1, -1, -1, -1, -1, -1, -1, -1, -1, -1, -1, -1, -1, -1, -1, -1, -1, -1, -1, -1, -1, -1, -1, -1, 0, 0, 0, 0, 0, -1, -1, -1, -1, -1, -1, -1, -1, -1, -1, -1, -1, -1, -1, -1, -1, 0, -1, -1, -1, 0, -1, -1, -1, -1, -1, -1, -1, -1, -1, -1, -1, -1, -1, -1, -1, -1, -1, -1, -1, -1, -1, -1, -1
       | -1, -1, -1, -1, -1, -1, -1, -1, -1, -1, 1, -1, -1, -1, -1, -1, -1, -1, -1, -1, 0, -1, -1, -1, -1, -1, -1, -1, -1, -1, -1, -1, -1, -1, -1, -1, -1, -1, -1, -1, -1, -1, -1, -1, -1, -1, -1, -1, -1, -1, -1, -1, -1, -1, -1, -1, -1, -1, -1, -1, -1, -1, -1, -1, -1, -1, -1, -1, -1, -1, -1, -1, 0, -1, -1, -1, -1, -1, -1, -1, -1, -1, -1, -1, 0, 0, -1, -1, -1, -1, -1, -1, -1, -1, -1, -1, -1, -1, -1
       | -1, -1, -1, -1, -1, -1, -1, 1, -1, 1, -1, 1, -1, -1, -1, -1, -1, -1, -1, -1, -1, -1, -1, -1, -1, -1, -1, -1, -1, -1, -1, -1, -1, -1, -1, -1, -1, -1, -1, -1, -1, -1, -1, -1, -1, -1, -1, -1, -1, -1, -1, -1, -1, -1, -1, -1, -1, -1, -1, -1, -1, -1, -1, -1, -1, 1, 1, 1, 1, 1, -1, 1, -1, 0, -1, -1, -1, -1, -1, -1, -1, -1, -1, -1, -1, -1, -1, -1, -1, -1, -1, -1, -1, -1, -1, -1, -1, -1, -1
       | -1, -1, -1, -1, -1, -1, -1, -1, -1, -1, -1, 0, 1, -1, -1, -1, -1, -1, -1, -1, -1, -1, -1, -1, -1, -1, -1, -1, 0, 0, -1, -1, -1, -1, -1, -1, -1, -1, -1, -1, -1, -1, -1, -1, -1, -1, -1, -1, -1, -1, -1, -1, -1, -1, -1, -1, -1, -1, -1, -1, -1, -1, -1, -1, -1, -1, -1, -1, -1, -1, -1, -1, -1, 0, 0, -1, -1, -1, -1, -1, -1, -1, -1, -1, -1, -1, -1, -1, -1, -1, -1, -1, -1, -1, -1, -1, 0, 0, 0
       | 2, -1, -1, -1, -1, -1, -1, -1, -1, -1, -1, -1, -1, 1, -1, -1, -1, -1, 0, -1, -1, -1, -1, -1, -1, -1, -1, -1, -1, -1, 2, 2, 2, 2, 2, -1, -1, -1, -1, -1, -1, -1, -1, -1, -1, -1, -1, -1, -1, -1, -1, -1, -1, -1, -1, -1, -1, -1, -1, -1, -1, -1, -1, -1, -1, -1, -1, -1, -1, -1, -1, -1, -1, -1, -1, 0, -1, -1, -1, -1, -1, 0, 0, -1, -1, -1, -1, -1, -1, -1, -1, -1, -1, -1, -1, -1, -1, -1, -1
       | -1, -1, -1, 1, -1, -1, -1, -1, -1, -1, -1, -1, -1, -1, 1, -1, -1, -1, -1, -1, -1, -1, -1, -1, -1, -1, -1, -1, -1, -1, -1, -1, -1, -1, -1, -1, -1, -1, -1, -1, -1, -1, -1, -1, -1, 1, 1, 1, 1, 1, -1, -1, -1, -1, -1, -1, -1, -1, -1, -1, -1, -1, -1, -1, -1, -1, -1, -1, -1, -1, -1, -1, -1, -1, -1, -1, 0, -1, -1, -1, -1, -1, -1, -1, -1, -1, -1, -1, -1, -1, -1, -1, -1, -1, -1, -1, -1, -1, -1
       | -1, -1, -1, -1, -1, -1, -1, -1, -1, 0, -1, -1, -1, -1, -1, 1, -1, -1, -1, -1, -1, -1, -1, -1, -1, -1, -1, -1, -1, -1, -1, -1, -1, -1, -1, -1, -1, -1, -1, -1, -1, -1, -1, -1, -1, -1, -1, -1, -1, -1, -1, -1, -1, -1, -1, -1, -1, -1, -1, -1, -1, -1, -1, -1, -1, -1, -1, -1, -1, -1, -1, 0, -1, -1, -1, -1, -1, 0, -1, -1, -1, -1, -1, -1, -1, -1, -1, -1, -1, -1, -1, -1, -1, -1, -1, -1, -1, -1, -1
       | -1, -1, -1, -1, -1, -1, -1, -1, -1, -1, -1, -1, -1, -1, 0, -1, 1, -1, -1, -1, 0, -1, -1, -1, -1, -1, -1, -1, -1, -1, -1, -1, -1, -1, -1, -1, -1, -1, -1, -1, -1, -1, -1, -1, -1, -1, -1, -1, -1, -1, -1, -1, -1, -1, -1, -1, -1, -1, -1, -1, -1, -1, -1, -1, -1, -1, -1, -1, -1, -1, -1, -1, -1, -1, -1, -1, 0, -1, 0, -1, -1, -1, -1, -1, 0, 0, -1, -1, -1, -1, -1, -1, -1, -1, -1, -1, -1, -1, -1
       | -1, -1, -1, -1, -1, -1, -1, -1, -1, -1, -1, -1, 0, -1, -1, -1, -1, 1, -1, -1, -1, -1, -1, -1, 1, -1, -1, -1, -1, -1, -1, -1, -1, -1, -1, -1, -1, -1, -1, -1, -1, -1, -1, -1, -1, -1, -1, -1, -1, -1, -1, -1, -1, -1, -1, -1, -1, -1, -1, -1, -1, -1, -1, -1, -1, -1, -1, -1, -1, -1, -1, -1, -1, -1, 0, -1, -1, -1, -1, -1, -1, -1, -1, -1, -1, -1, -1, -1, -1, -1, 1, 1, -1, -1, -1, -1, -1, -1, -1
       | -1, -1, -1, -1, -1, -1, -1, -1, -1, -1, -1, -1, -1, -1, -1, -1, -1, -1, 1, -1, -1, -1, -1, -1, -1, 0, -1, -1, -1, -1, -1, -1, -1, -1, -1, -1, -1, -1, -1, -1, -1, -1, -1, -1, -1, -1, -1, -1, -1, -1, -1, -1, -1, -1, -1, -1, -1, -1, -1, -1, -1, -1, -1, -1, -1, -1, -1, -1, -1, -1, -1, -1, -1, -1, -1, -1, -1, -1, -1, -1, -1, 0, -1, -1, -1, -1, -1, -1, -1, -1, -1, -1, 0, -1, -1, -1, -1, -1, -1
       | -1, -1, -1, -1, -1, -1, -1, -1, -1, -1, -1, -1, -1, -1, -1, -1, -1, -1, -1, 1, -1, -1, -1, 0, -1, -1, -1, -1, -1, -1, -1, -1, -1, -1, -1, -1, -1, -1, -1, -1, -1, -1, -1, -1, -1, -1, -1, -1, -1, -1, -1, -1, -1, -1, -1, -1, -1, -1, -1, -1, -1, -1, -1, -1, -1, -1, -1, -1, -1, -1, -1, -1, -1, -1, -1, -1, -1, -1, -1, -1, -1, -1, -1, -1, -1, -1, -1, -1, -1, 0, -1, -1, -1, -1, -1, -1, -1, -1, -1
       | -1, -1, -1, -1, -1, -1, -1, -1, -1, -1, -1, -1, -1, -1, -1, -1, -1, -1, -1, -1, 1, -1, -1, -1, -1, -1, 1, -1, -1, -1, -1, -1, -1, -1, -1, -1, -1, -1, -1, -1, -1, -1, -1, -1, -1, -1, -1, -1, -1, -1, -1, -1, -1, -1, -1, -1, -1, -1, -1, -1, -1, -1, -1, -1, -1, -1, -1, -1, -1, -1, -1, -1, -1, -1, -1, -1, -1, -1, -1, -1, -1, -1, -1, -1, 0, -1, -1, -1, -1, -1, -1, -1, -1, 1, 1, -1, -1, -1, -1
       | -1, -1, -1, -1, -1, -1, -1, -1, -1, -1, -1, -1, -1, -1, -1, -1, -1, 0, -1, -1, -1, 1, -1, -1, -1, -1, -1, -1, -1, -1, -1, -1, -1, -1, -1, -1, -1, -1, -1, -1, -1, -1, -1, -1, -1, -1, -1, -1, -1, -1, -1, -1, -1, -1, -1, -1, -1, -1, -1, -1, -1, -1, -1, -1, -1, -1, -1, -1, -1, -1, -1, -1, -1, -1, -1, -1, -1, -1, -1, -1, 0, -1, -1, -1, -1, -1, -1, -1, -1, -1, -1, -1, -1, -1, -1, -1, -1, -1, -1
       | 1, -1, -1, -1, -1, -1, -1, -1, -1, -1, -1, -1, -1, -1, -1, -1, -1, -1, -1, -1, -1, -1, 1, -1, -1, -1, -1, -1, -1, -1, 1, 1, 1, 1, 1, -1, -1, -1, -1, -1, -1, -1, -1, -1, -1, -1, -1, -1, -1, -1, -1, -1, -1, -1, -1, -1, -1, -1, -1, -1, -1, -1, -1, -1, -1, -1, -1, -1, -1, -1, -1, -1, -1, -1, -1, -1, -1, -1, -1, -1, -1, -1, -1, -1, -1, -1, -1, 0, -1, -1, -1, -1, -1, -1, -1, -1, -1, -1, -1
       | -1, -1, -1, -1, -1, -1, -1, -1, -1, -1, -1, -1, -1, -1, -1, -1, -1, -1, -1, -1, -1, 0, -1, 1, -1, -1, -1, -1, -1, -1, -1, -1, -1, -1, -1, -1, -1, -1, -1, -1, -1, -1, -1, -1, -1, -1, -1, -1, -1, -1, -1, -1, -1, -1, -1, -1, -1, -1, -1, -1, -1, -1, -1, -1, -1, -1, -1, -1, -1, -1, -1, -1, -1, -1, -1, -1, -1, -1, -1, -1, -1, -1, -1, -1, -1, -1, 0, -1, -1, -1, -1, -1, -1, -1, -1, -1, -1, -1, -1
       | -1, -1, -1, -1, -1, -1, -1, -1, -1, -1, -1, -1, -1, -1, -1, -1, 0, -1, -1, -1, -1, -1, -1, -1, 1, -1, -1, -1, -1, -1, -1, -1, -1, -1, -1, -1, -1, -1, -1, -1, -1, -1, -1, -1, -1, -1, -1, -1, -1, -1, -1, -1, -1, -1, -1, -1, -1, -1, -1, -1, -1, -1, -1, -1, -1, -1, -1, -1, -1, -1, -1, -1, -1, -1, -1, -1, -1, -1, 0, 0, -1, -1, -1, -1, -1, -1, -1, -1, -1, -1, 0, -1, -1, -1, -1, -1, -1, -1, -1
       | -1, -1, -1, -1, -1, -1, -1, -1, -1, -1, -1, -1, -1, -1, 1, -1, -1, 0, -1, -1, -1, -1, -1, -1, -1, 1, -1, -1, -1, 0, -1, -1, -1, -1, -1, -1, -1, -1, -1, -1, -1, -1, -1, -1, -1, -1, -1, -1, -1, -1, -1, -1, -1, -1, -1, -1, -1, -1, -1, -1, -1, -1, -1, -1, -1, -1, -1, -1, -1, -1, -1, -1, -1, -1, -1, -1, 1, -1, -1, -1, 0, -1, -1, -1, -1, -1, -1, -1, -1, -1, -1, -1, -1, -1, -1, -1, -1, -1, 0
       | -1, -1, -1, 0, -1, -1, -1, -1, -1, -1, -1, -1, -1, -1, -1, -1, -1, -1, -1, -1, -1, -1, -1, -1, -1, -1, 1, 0, -1, -1, -1, -1, -1, -1, -1, -1, -1, -1, -1, -1, -1, -1, -1, -1, -1, 0, 0, 0, 0, 0, -1, -1, -1, -1, -1, -1, -1, -1, -1, -1, -1, -1, -1, -1, -1, -1, -1, -1, -1, -1, -1, -1, -1, -1, -1, -1, -1, -1, -1, -1, -1, -1, -1, -1, -1, -1, -1, -1, -1, -1, -1, -1, -1, 0, -1, 0, -1, -1, -1
       | -1, -1, -1, -1, -1, -1, -1, -1, -1, -1, -1, -1, -1, -1, -1, 0, -1, -1, -1, -1, -1, -1, -1, -1, -1, -1, -1, 1, -1, -1, -1, -1, -1, -1, -1, -1, -1, -1, -1, -1, -1, -1, -1, -1, -1, -1, -1, -1, -1, -1, -1, -1, -1, -1, -1, -1, -1, -1, -1, -1, -1, -1, -1, -1, -1, -1, -1, -1, -1, -1, -1, -1, -1, -1, -1, -1, -1, 0, -1, -1, -1, -1, -1, -1, -1, -1, -1, -1, -1, -1, -1, -1, -1, -1, -1, -1, -1, -1, -1
       | -1, -1, -1, -1, -1, -1, -1, -1, -1, -1, -1, -1, -1, -1, -1, -1, -1, -1, -1, -1, -1, -1, 0, -1, -1, -1, -1, -1, 1, -1, -1, -1, -1, -1, -1, -1, -1, -1, -1, -1, -1, -1, -1, -1, -1, -1, -1, -1, -1, -1, -1, -1, -1, -1, -1, -1, -1, -1, -1, -1, -1, -1, -1, -1, -1, -1, -1, -1, -1, -1, -1, -1, -1, -1, -1, -1, -1, -1, -1, -1, -1, -1, -1, -1, -1, -1, -1, 0, 0, -1, -1, -1, -1, -1, -1, -1, 0, 1, -1
       | -1, -1, -1, -1, -1, -1, -1, -1, -1, -1, 1, 0, -1, -1, -1, -1, -1, -1, -1, -1, -1, -1, -1, -1, -1, -1, -1, -1, -1, 1, -1, -1, -1, -1, -1, -1, -1, -1, -1, -1, -1, -1, -1, -1, -1, -1, -1, -1, -1, -1, -1, -1, -1, -1, -1, -1, -1, -1, -1, -1, -1, -1, -1, -1, -1, -1, -1, -1, -1, -1, -1, -1, 1, 0, -1, -1, -1, -1, -1, -1, -1, -1, -1, -1, -1, -1, -1, -1, -1, -1, -1, -1, -1, -1, -1, -1, -1, -1, -1
       | 1, -1, -1, -1, -1, -1, -1, -1, -1, -1, -1, -1, -1, -1, -1, -1, -1, -1, -1, -1, -1, -1, -1, -1, -1, -1, -1, -1, -1, -1, 1, -1, -1, -1, -1, -1, -1, -1, -1, -1, -1, -1, -1, -1, -1, -1, -1, -1, -1, -1, -1, -1, -1, -1, -1, -1, -1, -1, -1, -1, -1, -1, -1, -1, -1, -1, -1, -1, -1, -1, -1, -1, -1, -1, -1, -1, -1, -1, -1, -1, -1, -1, -1, -1, -1, -1, -1, -1, -1, -1, -1, -1, -1, -1, -1, -1, -1, -1, -1
       | 1, -1, -1, -1, -1, -1, -1, -1, -1, -1, -1, -1, -1, -1, -1, -1, -1, -1, -1, -1, -1, -1, -1, -1, -1, -1, -1, -1, -1, -1, -1, 1, 1, -1, -1, -1, -1, -1, -1, -1, -1, -1, -1, -1, -1, -1, -1, -1, -1, -1, -1, -1, -1, -1, -1, -1, -1, -1, -1, -1, -1, -1, -1, -1, -1, -1, -1, -1, -1, -1, -1, -1, -1, -1, -1, -1, -1, -1, -1, -1, -1, -1, -1, -1, -1, -1, -1, -1, -1, -1, -1, -1, -1, -1, -1, -1, -1, -1, -1
       | -1, -1, -1, -1, -1, -1, -1, -1, -1, -1, -1, -1, -1, -1, -1, -1, -1, -1, -1, -1, -1, -1, -1, -1, -1, -1, -1, -1, -1, -1, -1, 1, 1, -1, -1, -1, -1, -1, -1, -1, -1, -1, -1, -1, -1, -1, -1, -1, -1, -1, -1, -1, -1, -1, -1, -1, -1, -1, -1, -1, -1, -1, -1, -1, -1, -1, -1, -1, -1, -1, -1, -1, -1, -1, -1, -1, -1, -1, -1, -1, -1, -1, -1, -1, -1, -1, -1, -1, -1, -1, -1, -1, -1, -1, -1, -1, -1, -1, -1
       | 1, -1, -1, -1, -1, -1, -1, -1, -1, -1, -1, -1, -1, -1, -1, -1, -1, -1, -1, -1, -1, -1, -1, -1, -1, -1, -1, -1, -1, -1, -1, -1, -1, 1, 0, -1, -1, -1, -1, -1, -1, -1, -1, -1, -1, -1, -1, -1, -1, -1, -1, -1, -1, -1, -1, -1, -1, -1, -1, -1, -1, -1, -1, -1, -1, -1, -1, -1, -1, -1, -1, -1, -1, -1, -1, -1, -1, -1, -1, -1, -1, -1, -1, -1, -1, -1, -1, -1, -1, -1, -1, -1, -1, -1, -1, -1, -1, -1, -1
       | -1, -1, -1, -1, -1, -1, -1, -1, -1, -1, -1, -1, -1, -1, -1, -1, -1, -1, -1, -1, -1, -1, -1, -1, -1, -1, -1, -1, -1, -1, -1, -1, -1, 1, 1, -1, -1, -1, -1, -1, -1, -1, -1, -1, -1, -1, -1, -1, -1, -1, -1, -1, -1, -1, -1, -1, -1, -1, -1, -1, -1, -1, -1, -1, -1, -1, -1, -1, -1, -1, -1, -1, -1, -1, -1, -1, -1, -1, -1, -1, -1, -1, -1, -1, -1, -1, -1, -1, -1, -1, -1, -1, -1, -1, -1, -1, -1, -1, -1
       | -1, 1, -1, -1, -1, -1, -1, -1, -1, -1, -1, -1, -1, -1, -1, -1, -1, -1, -1, -1, -1, -1, -1, -1, -1, -1, -1, -1, -1, -1, -1, -1, -1, -1, -1, 1, -1, -1, -1, -1, -1, -1, -1, -1, -1, -1, -1, -1, -1, -1, -1, -1, -1, -1, -1, -1, -1, -1, -1, -1, -1, -1, -1, -1, -1, -1, -1, -1, -1, -1, -1, -1, -1, -1, -1, -1, -1, -1, -1, -1, -1, -1, -1, -1, -1, -1, -1, -1, -1, -1, -1, -1, -1, -1, -1, -1, -1, -1, -1
       | -1, 1, -1, -1, -1, -1, -1, -1, -1, -1, -1, -1, -1, -1, -1, -1, -1, -1, -1, -1, -1, -1, -1, -1, -1, -1, -1, -1, -1, -1, -1, -1, -1, -1, -1, -1, 1, 1, -1, -1, -1, -1, -1, -1, -1, -1, -1, -1, -1, -1, -1, -1, -1, -1, -1, -1, -1, -1, -1, -1, -1, -1, -1, -1, -1, -1, -1, -1, -1, -1, -1, -1, -1, -1, -1, -1, -1, -1, -1, -1, -1, -1, -1, -1, -1, -1, -1, -1, -1, -1, -1, -1, -1, -1, -1, -1, -1, -1, -1
       | -1, -1, -1, -1, -1, -1, -1, -1, -1, -1, -1, -1, -1, -1, -1, -1, -1, -1, -1, -1, -1, -1, -1, -1, -1, -1, -1, -1, -1, -1, -1, -1, -1, -1, -1, -1, 1, 1, -1, -1, -1, -1, -1, -1, -1, -1, -1, -1, -1, -1, -1, -1, -1, -1, -1, -1, -1, -1, -1, -1, -1, -1, -1, -1, -1, -1, -1, -1, -1, -1, -1, -1, -1, -1, -1, -1, -1, -1, -1, -1, -1, -1, -1, -1, -1, -1, -1, -1, -1, -1, -1, -1, -1, -1, -1, -1, -1, -1, -1
       | -1, 1, -1, -1, -1, -1, -1, -1, -1, -1, -1, -1, -1, -1, -1, -1, -1, -1, -1, -1, -1, -1, -1, -1, -1, -1, -1, -1, -1, -1, -1, -1, -1, -1, -1, -1, -1, -1, 1, 0, -1, -1, -1, -1, -1, -1, -1, -1, -1, -1, -1, -1, -1, -1, -1, -1, -1, -1, -1, -1, -1, -1, -1, -1, -1, -1, -1, -1, -1, -1, -1, -1, -1, -1, -1, -1, -1, -1, -1, -1, -1, -1, -1, -1, -1, -1, -1, -1, -1, -1, -1, -1, -1, -1, -1, -1, -1, -1, -1
       | -1, -1, -1, -1, -1, -1, -1, -1, -1, -1, -1, -1, -1, -1, -1, -1, -1, -1, -1, -1, -1, -1, -1, -1, -1, -1, -1, -1, -1, -1, -1, -1, -1, -1, -1, -1, -1, -1, 1, 1, -1, -1, -1, -1, -1, -1, -1, -1, -1, -1, -1, -1, -1, -1, -1, -1, -1, -1, -1, -1, -1, -1, -1, -1, -1, -1, -1, -1, -1, -1, -1, -1, -1, -1, -1, -1, -1, -1, -1, -1, -1, -1, -1, -1, -1, -1, -1, -1, -1, -1, -1, -1, -1, -1, -1, -1, -1, -1, -1
       | -1, -1, 1, -1, -1, -1, -1, -1, -1, -1, -1, -1, -1, -1, -1, -1, -1, -1, -1, -1, -1, -1, -1, -1, -1, -1, -1, -1, -1, -1, -1, -1, -1, -1, -1, -1, -1, -1, -1, -1, 1, -1, -1, -1, -1, -1, -1, -1, -1, -1, -1, -1, -1, -1, -1, -1, -1, -1, -1, -1, -1, -1, -1, -1, -1, -1, -1, -1, -1, -1, -1, -1, -1, -1, -1, -1, -1, -1, -1, -1, -1, -1, -1, -1, -1, -1, -1, -1, -1, -1, -1, -1, -1, -1, -1, -1, -1, -1, -1
       | -1, -1, 1, -1, -1, -1, -1, -1, -1, -1, -1, -1, -1, -1, -1, -1, -1, -1, -1, -1, -1, -1, -1, -1, -1, -1, -1, -1, -1, -1, -1, -1, -1, -1, -1, -1, -1, -1, -1, -1, -1, 1, 1, -1, -1, -1, -1, -1, -1, -1, -1, -1, -1, -1, -1, -1, -1, -1, -1, -1, -1, -1, -1, -1, -1, -1, -1, -1, -1, -1, -1, -1, -1, -1, -1, -1, -1, -1, -1, -1, -1, -1, -1, -1, -1, -1, -1, -1, -1, -1, -1, -1, -1, -1, -1, -1, -1, -1, -1
       | -1, -1, -1, -1, -1, -1, -1, -1, -1, -1, -1, -1, -1, -1, -1, -1, -1, -1, -1, -1, -1, -1, -1, -1, -1, -1, -1, -1, -1, -1, -1, -1, -1, -1, -1, -1, -1, -1, -1, -1, -1, 1, 1, -1, -1, -1, -1, -1, -1, -1, -1, -1, -1, -1, -1, -1, -1, -1, -1, -1, -1, -1, -1, -1, -1, -1, -1, -1, -1, -1, -1, -1, -1, -1, -1, -1, -1, -1, -1, -1, -1, -1, -1, -1, -1, -1, -1, -1, -1, -1, -1, -1, -1, -1, -1, -1, -1, -1, -1
       | -1, -1, 1, -1, -1, -1, -1, -1, -1, -1, -1, -1, -1, -1, -1, -1, -1, -1, -1, -1, -1, -1, -1, -1, -1, -1, -1, -1, -1, -1, -1, -1, -1, -1, -1, -1, -1, -1, -1, -1, -1, -1, -1, 1, 0, -1, -1, -1, -1, -1, -1, -1, -1, -1, -1, -1, -1, -1, -1, -1, -1, -1, -1, -1, -1, -1, -1, -1, -1, -1, -1, -1, -1, -1, -1, -1, -1, -1, -1, -1, -1, -1, -1, -1, -1, -1, -1, -1, -1, -1, -1, -1, -1, -1, -1, -1, -1, -1, -1
       | -1, -1, -1, -1, -1, -1, -1, -1, -1, -1, -1, -1, -1, -1, -1, -1, -1, -1, -1, -1, -1, -1, -1, -1, -1, -1, -1, -1, -1, -1, -1, -1, -1, -1, -1, -1, -1, -1, -1, -1, -1, -1, -1, 1, 1, -1, -1, -1, -1, -1, -1, -1, -1, -1, -1, -1, -1, -1, -1, -1, -1, -1, -1, -1, -1, -1, -1, -1, -1, -1, -1, -1, -1, -1, -1, -1, -1, -1, -1, -1, -1, -1, -1, -1, -1, -1, -1, -1, -1, -1, -1, -1, -1, -1, -1, -1, -1, -1, -1
       | -1, -1, -1, 1, -1, -1, -1, -1, -1, -1, -1, -1, -1, -1, -1, -1, -1, -1, -1, -1, -1, -1, -1, -1, -1, -1, -1, -1, -1, -1, -1, -1, -1, -1, -1, -1, -1, -1, -1, -1, -1, -1, -1, -1, -1, 1, -1, -1, -1, -1, -1, -1, -1, -1, -1, -1, -1, -1, -1, -1, -1, -1, -1, -1, -1, -1, -1, -1, -1, -1, -1, -1, -1, -1, -1, -1, -1, -1, -1, -1, -1, -1, -1, -1, -1, -1, -1, -1, -1, -1, -1, -1, -1, -1, -1, -1, -1, -1, -1
       | -1, -1, -1, 1, -1, -1, -1, -1, -1, -1, -1, -1, -1, -1, -1, -1, -1, -1, -1, -1, -1, -1, -1, -1, -1, -1, -1, -1, -1, -1, -1, -1, -1, -1, -1, -1, -1, -1, -1, -1, -1, -1, -1, -1, -1, -1, 1, 1, -1, -1, -1, -1, -1, -1, -1, -1, -1, -1, -1, -1, -1, -1, -1, -1, -1, -1, -1, -1, -1, -1, -1, -1, -1, -1, -1, -1, -1, -1, -1, -1, -1, -1, -1, -1, -1, -1, -1, -1, -1, -1, -1, -1, -1, -1, -1, -1, -1, -1, -1
       | -1, -1, -1, -1, -1, -1, -1, -1, -1, -1, -1, -1, -1, -1, -1, -1, -1, -1, -1, -1, -1, -1, -1, -1, -1, -1, -1, -1, -1, -1, -1, -1, -1, -1, -1, -1, -1, -1, -1, -1, -1, -1, -1, -1, -1, -1, 1, 1, -1, -1, -1, -1, -1, -1, -1, -1, -1, -1, -1, -1, -1, -1, -1, -1, -1, -1, -1, -1, -1, -1, -1, -1, -1, -1, -1, -1, -1, -1, -1, -1, -1, -1, -1, -1, -1, -1, -1, -1, -1, -1, -1, -1, -1, -1, -1, -1, -1, -1, -1
       | -1, -1, -1, 1, -1, -1, -1, -1, -1, -1, -1, -1, -1, -1, -1, -1, -1, -1, -1, -1, -1, -1, -1, -1, -1, -1, -1, -1, -1, -1, -1, -1, -1, -1, -1, -1, -1, -1, -1, -1, -1, -1, -1, -1, -1, -1, -1, -1, 1, 0, -1, -1, -1, -1, -1, -1, -1, -1, -1, -1, -1, -1, -1, -1, -1, -1, -1, -1, -1, -1, -1, -1, -1, -1, -1, -1, -1, -1, -1, -1, -1, -1, -1, -1, -1, -1, -1, -1, -1, -1, -1, -1, -1, -1, -1, -1, -1, -1, -1
       | -1, -1, -1, -1, -1, -1, -1, -1, -1, -1, -1, -1, -1, -1, -1, -1, -1, -1, -1, -1, -1, -1, -1, -1, -1, -1, -1, -1, -1, -1, -1, -1, -1, -1, -1, -1, -1, -1, -1, -1, -1, -1, -1, -1, -1, -1, -1, -1, 1, 1, -1, -1, -1, -1, -1, -1, -1, -1, -1, -1, -1, -1, -1, -1, -1, -1, -1, -1, -1, -1, -1, -1, -1, -1, -1, -1, -1, -1, -1, -1, -1, -1, -1, -1, -1, -1, -1, -1, -1, -1, -1, -1, -1, -1, -1, -1, -1, -1, -1
       | -1, -1, -1, -1, 1, -1, -1, -1, -1, -1, -1, -1, -1, -1, -1, -1, -1, -1, -1, -1, -1, -1, -1, -1, -1, -1, -1, -1, -1, -1, -1, -1, -1, -1, -1, -1, -1, -1, -1, -1, -1, -1, -1, -1, -1, -1, -1, -1, -1, -1, 1, -1, -1, -1, -1, -1, -1, -1, -1, -1, -1, -1, -1, -1, -1, -1, -1, -1, -1, -1, -1, -1, -1, -1, -1, -1, -1, -1, -1, -1, -1, -1, -1, -1, -1, -1, -1, -1, -1, -1, -1, -1, -1, -1, -1, -1, -1, -1, -1
       | -1, -1, -1, -1, 1, -1, -1, -1, -1, -1, -1, -1, -1, -1, -1, -1, -1, -1, -1, -1, -1, -1, -1, -1, -1, -1, -1, -1, -1, -1, -1, -1, -1, -1, -1, -1, -1, -1, -1, -1, -1, -1, -1, -1, -1, -1, -1, -1, -1, -1, -1, 1, 1, -1, -1, -1, -1, -1, -1, -1, -1, -1, -1, -1, -1, -1, -1, -1, -1, -1, -1, -1, -1, -1, -1, -1, -1, -1, -1, -1, -1, -1, -1, -1, -1, -1, -1, -1, -1, -1, -1, -1, -1, -1, -1, -1, -1, -1, -1
       | -1, -1, -1, -1, -1, -1, -1, -1, -1, -1, -1, -1, -1, -1, -1, -1, -1, -1, -1, -1, -1, -1, -1, -1, -1, -1, -1, -1, -1, -1, -1, -1, -1, -1, -1, -1, -1, -1, -1, -1, -1, -1, -1, -1, -1, -1, -1, -1, -1, -1, -1, 1, 1, -1, -1, -1, -1, -1, -1, -1, -1, -1, -1, -1, -1, -1, -1, -1, -1, -1, -1, -1, -1, -1, -1, -1, -1, -1, -1, -1, -1, -1, -1, -1, -1, -1, -1, -1, -1, -1, -1, -1, -1, -1, -1, -1, -1, -1, -1
       | -1, -1, -1, -1, 1, -1, -1, -1, -1, -1, -1, -1, -1, -1, -1, -1, -1, -1, -1, -1, -1, -1, -1, -1, -1, -1, -1, -1, -1, -1, -1, -1, -1, -1, -1, -1, -1, -1, -1, -1, -1, -1, -1, -1, -1, -1, -1, -1, -1, -1, -1, -1, -1, 1, 0, -1, -1, -1, -1, -1, -1, -1, -1, -1, -1, -1, -1, -1, -1, -1, -1, -1, -1, -1, -1, -1, -1, -1, -1, -1, -1, -1, -1, -1, -1, -1, -1, -1, -1, -1, -1, -1, -1, -1, -1, -1, -1, -1, -1
       | -1, -1, -1, -1, -1, -1, -1, -1, -1, -1, -1, -1, -1, -1, -1, -1, -1, -1, -1, -1, -1, -1, -1, -1, -1, -1, -1, -1, -1, -1, -1, -1, -1, -1, -1, -1, -1, -1, -1, -1, -1, -1, -1, -1, -1, -1, -1, -1, -1, -1, -1, -1, -1, 1, 1, -1, -1, -1, -1, -1, -1, -1, -1, -1, -1, -1, -1, -1, -1, -1, -1, -1, -1, -1, -1, -1, -1, -1, -1, -1, -1, -1, -1, -1, -1, -1, -1, -1, -1, -1, -1, -1, -1, -1, -1, -1, -1, -1, -1
       | -1, -1, -1, -1, -1, 1, -1, -1, -1, -1, -1, -1, -1, -1, -1, -1, -1, -1, -1, -1, -1, -1, -1, -1, -1, -1, -1, -1, -1, -1, -1, -1, -1, -1, -1, -1, -1, -1, -1, -1, -1, -1, -1, -1, -1, -1, -1, -1, -1, -1, -1, -1, -1, -1, -1, 1, -1, -1, -1, -1, -1, -1, -1, -1, -1, -1, -1, -1, -1, -1, -1, -1, -1, -1, -1, -1, -1, -1, -1, -1, -1, -1, -1, -1, -1, -1, -1, -1, -1, -1, -1, -1, -1, -1, -1, -1, -1, -1, -1
       | -1, -1, -1, -1, -1, 1, -1, -1, -1, -1, -1, -1, -1, -1, -1, -1, -1, -1, -1, -1, -1, -1, -1, -1, -1, -1, -1, -1, -1, -1, -1, -1, -1, -1, -1, -1, -1, -1, -1, -1, -1, -1, -1, -1, -1, -1, -1, -1, -1, -1, -1, -1, -1, -1, -1, -1, 1, 1, -1, -1, -1, -1, -1, -1, -1, -1, -1, -1, -1, -1, -1, -1, -1, -1, -1, -1, -1, -1, -1, -1, -1, -1, -1, -1, -1, -1, -1, -1, -1, -1, -1, -1, -1, -1, -1, -1, -1, -1, -1
       | -1, -1, -1, -1, -1, -1, -1, -1, -1, -1, -1, -1, -1, -1, -1, -1, -1, -1, -1, -1, -1, -1, -1, -1, -1, -1, -1, -1, -1, -1, -1, -1, -1, -1, -1, -1, -1, -1, -1, -1, -1, -1, -1, -1, -1, -1, -1, -1, -1, -1, -1, -1, -1, -1, -1, -1, 1, 1, -1, -1, -1, -1, -1, -1, -1, -1, -1, -1, -1, -1, -1, -1, -1, -1, -1, -1, -1, -1, -1, -1, -1, -1, -1, -1, -1, -1, -1, -1, -1, -1, -1, -1, -1, -1, -1, -1, -1, -1, -1
       | -1, -1, -1, -1, -1, 1, -1, -1, -1, -1, -1, -1, -1, -1, -1, -1, -1, -1, -1, -1, -1, -1, -1, -1, -1, -1, -1, -1, -1, -1, -1, -1, -1, -1, -1, -1, -1, -1, -1, -1, -1, -1, -1, -1, -1, -1, -1, -1, -1, -1, -1, -1, -1, -1, -1, -1, -1, -1, 1, 0, -1, -1, -1, -1, -1, -1, -1, -1, -1, -1, -1, -1, -1, -1, -1, -1, -1, -1, -1, -1, -1, -1, -1, -1, -1, -1, -1, -1, -1, -1, -1, -1, -1, -1, -1, -1, -1, -1, -1
       | -1, -1, -1, -1, -1, -1, -1, -1, -1, -1, -1, -1, -1, -1, -1, -1, -1, -1, -1, -1, -1, -1, -1, -1, -1, -1, -1, -1, -1, -1, -1, -1, -1, -1, -1, -1, -1, -1, -1, -1, -1, -1, -1, -1, -1, -1, -1, -1, -1, -1, -1, -1, -1, -1, -1, -1, -1, -1, 1, 1, -1, -1, -1, -1, -1, -1, -1, -1, -1, -1, -1, -1, -1, -1, -1, -1, -1, -1, -1, -1, -1, -1, -1, -1, -1, -1, -1, -1, -1, -1, -1, -1, -1, -1, -1, -1, -1, -1, -1
       | -1, -1, -1, -1, -1, -1, 1, -1, -1, -1, -1, -1, -1, -1, -1, -1, -1, -1, -1, -1, -1, -1, -1, -1, -1, -1, -1, -1, -1, -1, -1, -1, -1, -1, -1, -1, -1, -1, -1, -1, -1, -1, -1, -1, -1, -1, -1, -1, -1, -1, -1, -1, -1, -1, -1, -1, -1, -1, -1, -1, 1, -1, -1, -1, -1, -1, -1, -1, -1, -1, -1, -1, -1, -1, -1, -1, -1, -1, -1, -1, -1, -1, -1, -1, -1, -1, -1, -1, -1, -1, -1, -1, -1, -1, -1, -1, -1, -1, -1
       | -1, -1, -1, -1, -1, -1, 1, -1, -1, -1, -1, -1, -1, -1, -1, -1, -1, -1, -1, -1, -1, -1, -1, -1, -1, -1, -1, -1, -1, -1, -1, -1, -1, -1, -1, -1, -1, -1, -1, -1, -1, -1, -1, -1, -1, -1, -1, -1, -1, -1, -1, -1, -1, -1, -1, -1, -1, -1, -1, -1, -1, 1, 1, -1, -1, -1, -1, -1, -1, -1, -1, -1, -1, -1, -1, -1, -1, -1, -1, -1, -1, -1, -1, -1, -1, -1, -1, -1, -1, -1, -1, -1, -1, -1, -1, -1, -1, -1, -1
       | -1, -1, -1, -1, -1, -1, -1, -1, -1, -1, -1, -1, -1, -1, -1, -1, -1, -1, -1, -1, -1, -1, -1, -1, -1, -1, -1, -1, -1, -1, -1, -1, -1, -1, -1, -1, -1, -1, -1, -1, -1, -1, -1, -1, -1, -1, -1, -1, -1, -1, -1, -1, -1, -1, -1, -1, -1, -1, -1, -1, -1, 1, 1, -1, -1, -1, -1, -1, -1, -1, -1, -1, -1, -1, -1, -1, -1, -1, -1, -1, -1, -1, -1, -1, -1, -1, -1, -1, -1, -1, -1, -1, -1, -1, -1, -1, -1, -1, -1
       | -1, -1, -1, -1, -1, -1, 1, -1, -1, -1, -1, -1, -1, -1, -1, -1, -1, -1, -1, -1, -1, -1, -1, -1, -1, -1, -1, -1, -1, -1, -1, -1, -1, -1, -1, -1, -1, -1, -1, -1, -1, -1, -1, -1, -1, -1, -1, -1, -1, -1, -1, -1, -1, -1, -1, -1, -1, -1, -1, -1, -1, -1, -1, 1, 0, -1, -1, -1, -1, -1, -1, -1, -1, -1, -1, -1, -1, -1, -1, -1, -1, -1, -1, -1, -1, -1, -1, -1, -1, -1, -1, -1, -1, -1, -1, -1, -1, -1, -1
       | -1, -1, -1, -1, -1, -1, -1, -1, -1, -1, -1, -1, -1, -1, -1, -1, -1, -1, -1, -1, -1, -1, -1, -1, -1, -1, -1, -1, -1, -1, -1, -1, -1, -1, -1, -1, -1, -1, -1, -1, -1, -1, -1, -1, -1, -1, -1, -1, -1, -1, -1, -1, -1, -1, -1, -1, -1, -1, -1, -1, -1, -1, -1, 1, 1, -1, -1, -1, -1, -1, -1, -1, -1, -1, -1, -1, -1, -1, -1, -1, -1, -1, -1, -1, -1, -1, -1, -1, -1, -1, -1, -1, -1, -1, -1, -1, -1, -1, -1
       | -1, -1, -1, -1, -1, -1, -1, 1, -1, -1, -1, -1, -1, -1, -1, -1, -1, -1, -1, -1, -1, -1, -1, -1, -1, -1, -1, -1, -1, -1, -1, -1, -1, -1, -1, -1, -1, -1, -1, -1, -1, -1, -1, -1, -1, -1, -1, -1, -1, -1, -1, -1, -1, -1, -1, -1, -1, -1, -1, -1, -1, -1, -1, -1, -1, 1, -1, -1, -1, -1, -1, -1, -1, -1, -1, -1, -1, -1, -1, -1, -1, -1, -1, -1, -1, -1, -1, -1, -1, -1, -1, -1, -1, -1, -1, -1, -1, -1, -1
       | -1, -1, -1, -1, -1, -1, -1, 1, -1, -1, -1, -1, -1, -1, -1, -1, -1, -1, -1, -1, -1, -1, -1, -1, -1, -1, -1, -1, -1, -1, -1, -1, -1, -1, -1, -1, -1, -1, -1, -1, -1, -1, -1, -1, -1, -1, -1, -1, -1, -1, -1, -1, -1, -1, -1, -1, -1, -1, -1, -1, -1, -1, -1, -1, -1, -1, 1, 1, -1, -1, -1, -1, -1, -1, -1, -1, -1, -1, -1, -1, -1, -1, -1, -1, -1, -1, -1, -1, -1, -1, -1, -1, -1, -1, -1, -1, -1, -1, -1
       | -1, -1, -1, -1, -1, -1, -1, -1, -1, -1, -1, -1, -1, -1, -1, -1, -1, -1, -1, -1, -1, -1, -1, -1, -1, -1, -1, -1, -1, -1, -1, -1, -1, -1, -1, -1, -1, -1, -1, -1, -1, -1, -1, -1, -1, -1, -1, -1, -1, -1, -1, -1, -1, -1, -1, -1, -1, -1, -1, -1, -1, -1, -1, -1, -1, -1, 1, 1, -1, -1, -1, -1, -1, -1, -1, -1, -1, -1, -1, -1, -1, -1, -1, -1, -1, -1, -1, -1, -1, -1, -1, -1, -1, -1, -1, -1, -1, -1, -1
       | -1, -1, -1, -1, -1, -1, -1, 1, -1, -1, -1, -1, -1, -1, -1, -1, -1, -1, -1, -1, -1, -1, -1, -1, -1, -1, -1, -1, -1, -1, -1, -1, -1, -1, -1, -1, -1, -1, -1, -1, -1, -1, -1, -1, -1, -1, -1, -1, -1, -1, -1, -1, -1, -1, -1, -1, -1, -1, -1, -1, -1, -1, -1, -1, -1, -1, -1, -1, 1, 0, -1, -1, -1, -1, -1, -1, -1, -1, -1, -1, -1, -1, -1, -1, -1, -1, -1, -1, -1, -1, -1, -1, -1, -1, -1, -1, -1, -1, -1
       | -1, -1, -1, -1, -1, -1, -1, -1, -1, -1, -1, -1, -1, -1, -1, -1, -1, -1, -1, -1, -1, -1, -1, -1, -1, -1, -1, -1, -1, -1, -1, -1, -1, -1, -1, -1, -1, -1, -1, -1, -1, -1, -1, -1, -1, -1, -1, -1, -1, -1, -1, -1, -1, -1, -1, -1, -1, -1, -1, -1, -1, -1, -1, -1, -1, -1, -1, -1, 1, 1, -1, -1, -1, -1, -1, -1, -1, -1, -1, -1, -1, -1, -1, -1, -1, -1, -1, -1, -1, -1, -1, -1, -1, -1, -1, -1, -1, -1, -1
       | -1, -1, -1, -1, -1, -1, -1, -1, 1, -1, -1, -1, -1, -1, -1, -1, -1, -1, -1, -1, -1, -1, -1, -1, -1, -1, -1, -1, -1, -1, -1, -1, -1, -1, -1, -1, -1, -1, -1, -1, -1, -1, -1, -1, -1, -1, -1, -1, -1, -1, -1, -1, -1, -1, -1, -1, -1, -1, -1, -1, -1, -1, -1, -1, -1, -1, -1, -1, -1, -1, 1, -1, -1, -1, -1, -1, -1, -1, -1, -1, -1, -1, -1, -1, -1, -1, -1, -1, -1, -1, -1, -1, -1, -1, -1, -1, -1, -1, -1
       | -1, -1, -1, -1, -1, -1, -1, -1, -1, 1, -1, -1, -1, -1, -1, -1, -1, -1, -1, -1, -1, -1, -1, -1, -1, -1, -1, -1, -1, -1, -1, -1, -1, -1, -1, -1, -1, -1, -1, -1, -1, -1, -1, -1, -1, -1, -1, -1, -1, -1, -1, -1, -1, -1, -1, -1, -1, -1, -1, -1, -1, -1, -1, -1, -1, -1, -1, -1, -1, -1, -1, 1, -1, -1, -1, -1, -1, -1, -1, -1, -1, -1, -1, -1, -1, -1, -1, -1, -1, -1, -1, -1, -1, -1, -1, -1, -1, -1, -1
       | -1, -1, -1, -1, -1, -1, -1, -1, -1, -1, 1, -1, -1, -1, -1, -1, -1, -1, -1, -1, -1, -1, -1, -1, -1, -1, -1, -1, -1, -1, -1, -1, -1, -1, -1, -1, -1, -1, -1, -1, -1, -1, -1, -1, -1, -1, -1, -1, -1, -1, -1, -1, -1, -1, -1, -1, -1, -1, -1, -1, -1, -1, -1, -1, -1, -1, -1, -1, -1, -1, -1, -1, 1, -1, -1, -1, -1, -1, -1, -1, -1, -1, -1, -1, -1, -1, -1, -1, -1, -1, -1, -1, -1, -1, -1, -1, -1, -1, -1
       | -1, -1, -1, -1, -1, -1, -1, -1, -1, -1, -1, 1, -1, -1, -1, -1, -1, -1, -1, -1, -1, -1, -1, -1, -1, -1, -1, -1, -1, -1, -1, -1, -1, -1, -1, -1, -1, -1, -1, -1, -1, -1, -1, -1, -1, -1, -1, -1, -1, -1, -1, -1, -1, -1, -1, -1, -1, -1, -1, -1, -1, -1, -1, -1, -1, -1, -1, -1, -1, -1, -1, -1, -1, 1, -1, -1, -1, -1, -1, -1, -1, -1, -1, -1, -1, -1, -1, -1, -1, -1, -1, -1, -1, -1, -1, -1, -1, -1, -1
       | -1, -1, -1, -1, -1, -1, -1, -1, -1, -1, -1, -1, 1, -1, -1, -1, -1, -1, -1, -1, -1, -1, -1, -1, -1, -1, -1, -1, -1, -1, -1, -1, -1, -1, -1, -1, -1, -1, -1, -1, -1, -1, -1, -1, -1, -1, -1, -1, -1, -1, -1, -1, -1, -1, -1, -1, -1, -1, -1, -1, -1, -1, -1, -1, -1, -1, -1, -1, -1, -1, -1, -1, -1, -1, 1, -1, -1, -1, -1, -1, -1, -1, -1, -1, -1, -1, -1, -1, -1, -1, -1, -1, -1, -1, -1, -1, -1, -1, -1
       | -1, -1, -1, -1, -1, -1, -1, -1, -1, -1, -1, -1, -1, 1, -1, -1, -1, -1, -1, -1, -1, -1, -1, -1, -1, -1, -1, -1, -1, -1, -1, -1, -1, -1, -1, -1, -1, -1, -1, -1, -1, -1, -1, -1, -1, -1, -1, -1, -1, -1, -1, -1, -1, -1, -1, -1, -1, -1, -1, -1, -1, -1, -1, -1, -1, -1, -1, -1, -1, -1, -1, -1, -1, -1, -1, 1, -1, -1, -1, -1, -1, -1, -1, -1, -1, -1, -1, -1, -1, -1, -1, -1, -1, -1, -1, -1, -1, -1, -1
       | -1, -1, -1, -1, -1, -1, -1, -1, -1, -1, -1, -1, -1, -1, 1, -1, -1, -1, -1, -1, -1, -1, -1, -1, -1, -1, -1, -1, -1, -1, -1, -1, -1, -1, -1, -1, -1, -1, -1, -1, -1, -1, -1, -1, -1, -1, -1, -1, -1, -1, -1, -1, -1, -1, -1, -1, -1, -1, -1, -1, -1, -1, -1, -1, -1, -1, -1, -1, -1, -1, -1, -1, -1, -1, -1, -1, 1, -1, -1, -1, -1, -1, -1, -1, -1, -1, -1, -1, -1, -1, -1, -1, -1, -1, -1, -1, -1, -1, -1
       | -1, -1, -1, -1, -1, -1, -1, -1, -1, -1, -1, -1, -1, -1, -1, 1, -1, -1, -1, -1, -1, -1, -1, -1, -1, -1, -1, -1, -1, -1, -1, -1, -1, -1, -1, -1, -1, -1, -1, -1, -1, -1, -1, -1, -1, -1, -1, -1, -1, -1, -1, -1, -1, -1, -1, -1, -1, -1, -1, -1, -1, -1, -1, -1, -1, -1, -1, -1, -1, -1, -1, -1, -1, -1, -1, -1, -1, 1, -1, -1, -1, -1, -1, -1, -1, -1, -1, -1, -1, -1, -1, -1, -1, -1, -1, -1, -1, -1, -1
       | -1, -1, -1, -1, -1, -1, -1, -1, -1, -1, -1, -1, -1, -1, -1, -1, 1, -1, -1, -1, -1, -1, -1, -1, -1, -1, -1, -1, -1, -1, -1, -1, -1, -1, -1, -1, -1, -1, -1, -1, -1, -1, -1, -1, -1, -1, -1, -1, -1, -1, -1, -1, -1, -1, -1, -1, -1, -1, -1, -1, -1, -1, -1, -1, -1, -1, -1, -1, -1, -1, -1, -1, -1, -1, -1, -1, -1, -1, 1, -1, -1, -1, -1, -1, -1, -1, -1, -1, -1, -1, -1, -1, -1, -1, -1, -1, -1, -1, -1
       | -1, -1, -1, -1, -1, -1, -1, -1, -1, -1, -1, -1, -1, -1, -1, -1, 1, -1, -1, -1, -1, -1, -1, -1, -1, -1, -1, -1, -1, -1, -1, -1, -1, -1, -1, -1, -1, -1, -1, -1, -1, -1, -1, -1, -1, -1, -1, -1, -1, -1, -1, -1, -1, -1, -1, -1, -1, -1, -1, -1, -1, -1, -1, -1, -1, -1, -1, -1, -1, -1, -1, -1, -1, -1, -1, -1, -1, -1, -1, 1, -1, -1, -1, -1, -1, -1, -1, -1, -1, -1, -1, -1, -1, -1, -1, -1, -1, -1, -1
       | -1, -1, -1, -1, -1, -1, -1, -1, -1, -1, -1, -1, -1, -1, -1, -1, -1, 1, -1, -1, -1, -1, -1, -1, -1, -1, -1, -1, -1, -1, -1, -1, -1, -1, -1, -1, -1, -1, -1, -1, -1, -1, -1, -1, -1, -1, -1, -1, -1, -1, -1, -1, -1, -1, -1, -1, -1, -1, -1, -1, -1, -1, -1, -1, -1, -1, -1, -1, -1, -1, -1, -1, -1, -1, -1, -1, -1, -1, -1, -1, 1, -1, -1, -1, -1, -1, -1, -1, -1, -1, -1, -1, -1, -1, -1, -1, -1, -1, -1
       | -1, -1, -1, -1, -1, -1, -1, -1, -1, -1, -1, -1, -1, -1, -1, -1, -1, -1, 1, -1, -1, -1, -1, -1, -1, -1, -1, -1, -1, -1, -1, -1, -1, -1, -1, -1, -1, -1, -1, -1, -1, -1, -1, -1, -1, -1, -1, -1, -1, -1, -1, -1, -1, -1, -1, -1, -1, -1, -1, -1, -1, -1, -1, -1, -1, -1, -1, -1, -1, -1, -1, -1, -1, -1, -1, -1, -1, -1, -1, -1, -1, 1, -1, -1, -1, -1, -1, -1, -1, -1, -1, -1, -1, -1, -1, -1, -1, -1, -1
       | -1, -1, -1, -1, -1, -1, -1, -1, -1, -1, -1, -1, -1, -1, -1, -1, -1, -1, 1, -1, -1, -1, -1, -1, -1, -1, -1, -1, -1, -1, -1, -1, -1, -1, -1, -1, -1, -1, -1, -1, -1, -1, -1, -1, -1, -1, -1, -1, -1, -1, -1, -1, -1, -1, -1, -1, -1, -1, -1, -1, -1, -1, -1, -1, -1, -1, -1, -1, -1, -1, -1, -1, -1, -1, -1, -1, -1, -1, -1, -1, -1, -1, 1, -1, -1, -1, -1, -1, -1, -1, -1, -1, -1, -1, -1, -1, -1, -1, -1
       | -1, -1, -1, -1, -1, -1, -1, -1, -1, -1, -1, -1, -1, -1, -1, -1, -1, -1, -1, 1, -1, -1, -1, -1, -1, -1, -1, -1, -1, -1, -1, -1, -1, -1, -1, -1, -1, -1, -1, -1, -1, -1, -1, -1, -1, -1, -1, -1, -1, -1, -1, -1, -1, -1, -1, -1, -1, -1, -1, -1, -1, -1, -1, -1, -1, -1, -1, -1, -1, -1, -1, -1, -1, -1, -1, -1, -1, -1, -1, -1, -1, -1, -1, 1, -1, -1, -1, -1, -1, -1, -1, -1, -1, -1, -1, -1, -1, -1, -1
       | -1, -1, -1, -1, -1, -1, -1, -1, -1, -1, -1, -1, -1, -1, -1, -1, -1, -1, -1, -1, 1, -1, -1, -1, -1, -1, -1, -1, -1, -1, -1, -1, -1, -1, -1, -1, -1, -1, -1, -1, -1, -1, -1, -1, -1, -1, -1, -1, -1, -1, -1, -1, -1, -1, -1, -1, -1, -1, -1, -1, -1, -1, -1, -1, -1, -1, -1, -1, -1, -1, -1, -1, -1, -1, -1, -1, -1, -1, -1, -1, -1, -1, -1, -1, 1, -1, -1, -1, -1, -1, -1, -1, -1, -1, -1, -1, -1, -1, -1
       | -1, -1, -1, -1, -1, -1, -1, -1, -1, -1, -1, -1, -1, -1, -1, -1, -1, -1, -1, -1, 1, -1, -1, -1, -1, -1, -1, -1, -1, -1, -1, -1, -1, -1, -1, -1, -1, -1, -1, -1, -1, -1, -1, -1, -1, -1, -1, -1, -1, -1, -1, -1, -1, -1, -1, -1, -1, -1, -1, -1, -1, -1, -1, -1, -1, -1, -1, -1, -1, -1, -1, -1, -1, -1, -1, -1, -1, -1, -1, -1, -1, -1, -1, -1, -1, 1, -1, -1, -1, -1, -1, -1, -1, -1, -1, -1, -1, -1, -1
       | -1, -1, -1, -1, -1, -1, -1, -1, -1, -1, -1, -1, -1, -1, -1, -1, -1, -1, -1, -1, -1, 1, -1, -1, -1, -1, -1, -1, -1, -1, -1, -1, -1, -1, -1, -1, -1, -1, -1, -1, -1, -1, -1, -1, -1, -1, -1, -1, -1, -1, -1, -1, -1, -1, -1, -1, -1, -1, -1, -1, -1, -1, -1, -1, -1, -1, -1, -1, -1, -1, -1, -1, -1, -1, -1, -1, -1, -1, -1, -1, -1, -1, -1, -1, -1, -1, 1, -1, -1, -1, -1, -1, -1, -1, -1, -1, -1, -1, -1
       | -1, -1, -1, -1, -1, -1, -1, -1, -1, -1, -1, -1, -1, -1, -1, -1, -1, -1, -1, -1, -1, -1, 1, -1, -1, -1, -1, -1, -1, -1, -1, -1, -1, -1, -1, -1, -1, -1, -1, -1, -1, -1, -1, -1, -1, -1, -1, -1, -1, -1, -1, -1, -1, -1, -1, -1, -1, -1, -1, -1, -1, -1, -1, -1, -1, -1, -1, -1, -1, -1, -1, -1, -1, -1, -1, -1, -1, -1, -1, -1, -1, -1, -1, -1, -1, -1, -1, 1, -1, -1, -1, -1, -1, -1, -1, -1, -1, -1, -1
       | -1, -1, -1, -1, -1, -1, -1, -1, -1, -1, -1, -1, -1, -1, -1, -1, -1, -1, -1, -1, -1, -1, 1, -1, -1, -1, -1, -1, -1, -1, -1, -1, -1, -1, -1, -1, -1, -1, -1, -1, -1, -1, -1, -1, -1, -1, -1, -1, -1, -1, -1, -1, -1, -1, -1, -1, -1, -1, -1, -1, -1, -1, -1, -1, -1, -1, -1, -1, -1, -1, -1, -1, -1, -1, -1, -1, -1, -1, -1, -1, -1, -1, -1, -1, -1, -1, -1, -1, 1, -1, -1, -1, -1, -1, -1, -1, -1, -1, -1
       | -1, -1, -1, -1, -1, -1, -1, -1, -1, -1, -1, -1, -1, -1, -1, -1, -1, -1, -1, -1, -1, -1, -1, 1, -1, -1, -1, -1, -1, -1, -1, -1, -1, -1, -1, -1, -1, -1, -1, -1, -1, -1, -1, -1, -1, -1, -1, -1, -1, -1, -1, -1, -1, -1, -1, -1, -1, -1, -1, -1, -1, -1, -1, -1, -1, -1, -1, -1, -1, -1, -1, -1, -1, -1, -1, -1, -1, -1, -1, -1, -1, -1, -1, -1, -1, -1, -1, -1, -1, 1, -1, -1, -1, -1, -1, -1, -1, -1, -1
       | -1, -1, -1, -1, -1, -1, -1, -1, -1, -1, -1, -1, -1, -1, -1, -1, -1, -1, -1, -1, -1, -1, -1, -1, 1, -1, -1, -1, -1, -1, -1, -1, -1, -1, -1, -1, -1, -1, -1, -1, -1, -1, -1, -1, -1, -1, -1, -1, -1, -1, -1, -1, -1, -1, -1, -1, -1, -1, -1, -1, -1, -1, -1, -1, -1, -1, -1, -1, -1, -1, -1, -1, -1, -1, -1, -1, -1, -1, -1, -1, -1, -1, -1, -1, -1, -1, -1, -1, -1, -1, 1, -1, -1, -1, -1, -1, -1, -1, -1
       | -1, -1, -1, -1, -1, -1, -1, -1, -1, -1, -1, -1, -1, -1, -1, -1, -1, -1, -1, -1, -1, -1, -1, -1, 1, -1, -1, -1, -1, -1, -1, -1, -1, -1, -1, -1, -1, -1, -1, -1, -1, -1, -1, -1, -1, -1, -1, -1, -1, -1, -1, -1, -1, -1, -1, -1, -1, -1, -1, -1, -1, -1, -1, -1, -1, -1, -1, -1, -1, -1, -1, -1, -1, -1, -1, -1, -1, -1, -1, -1, -1, -1, -1, -1, -1, -1, -1, -1, -1, -1, -1, 1, -1, -1, -1, -1, -1, -1, -1
       | -1, -1, -1, -1, -1, -1, -1, -1, -1, -1, -1, -1, -1, -1, -1, -1, -1, -1, -1, -1, -1, -1, -1, -1, -1, 1, -1, -1, -1, -1, -1, -1, -1, -1, -1, -1, -1, -1, -1, -1, -1, -1, -1, -1, -1, -1, -1, -1, -1, -1, -1, -1, -1, -1, -1, -1, -1, -1, -1, -1, -1, -1, -1, -1, -1, -1, -1, -1, -1, -1, -1, -1, -1, -1, -1, -1, -1, -1, -1, -1, -1, -1, -1, -1, -1, -1, -1, -1, -1, -1, -1, -1, 1, -1, -1, -1, -1, -1, -1
       | -1, -1, -1, -1, -1, -1, -1, -1, -1, -1, -1, -1, -1, -1, -1, -1, -1, -1, -1, -1, -1, -1, -1, -1, -1, -1, 1, -1, -1, -1, -1, -1, -1, -1, -1, -1, -1, -1, -1, -1, -1, -1, -1, -1, -1, -1, -1, -1, -1, -1, -1, -1, -1, -1, -1, -1, -1, -1, -1, -1, -1, -1, -1, -1, -1, -1, -1, -1, -1, -1, -1, -1, -1, -1, -1, -1, -1, -1, -1, -1, -1, -1, -1, -1, -1, -1, -1, -1, -1, -1, -1, -1, -1, 1, -1, -1, -1, -1, -1
       | -1, -1, -1, -1, -1, -1, -1, -1, -1, -1, -1, -1, -1, -1, -1, -1, -1, -1, -1, -1, -1, -1, -1, -1, -1, -1, 1, -1, -1, -1, -1, -1, -1, -1, -1, -1, -1, -1, -1, -1, -1, -1, -1, -1, -1, -1, -1, -1, -1, -1, -1, -1, -1, -1, -1, -1, -1, -1, -1, -1, -1, -1, -1, -1, -1, -1, -1, -1, -1, -1, -1, -1, -1, -1, -1, -1, -1, -1, -1, -1, -1, -1, -1, -1, -1, -1, -1, -1, -1, -1, -1, -1, -1, -1, 1, -1, -1, -1, -1
       | -1, -1, -1, -1, -1, -1, -1, -1, -1, -1, -1, -1, -1, -1, -1, -1, -1, -1, -1, -1, -1, -1, -1, -1, -1, -1, -1, 1, -1, -1, -1, -1, -1, -1, -1, -1, -1, -1, -1, -1, -1, -1, -1, -1, -1, -1, -1, -1, -1, -1, -1, -1, -1, -1, -1, -1, -1, -1, -1, -1, -1, -1, -1, -1, -1, -1, -1, -1, -1, -1, -1, -1, -1, -1, -1, -1, -1, -1, -1, -1, -1, -1, -1, -1, -1, -1, -1, -1, -1, -1, -1, -1, -1, -1, -1, 1, -1, -1, -1
       | -1, -1, -1, -1, -1, -1, -1, -1, -1, -1, -1, -1, -1, -1, -1, -1, -1, -1, -1, -1, -1, -1, -1, -1, -1, -1, -1, -1, 1, -1, -1, -1, -1, -1, -1, -1, -1, -1, -1, -1, -1, -1, -1, -1, -1, -1, -1, -1, -1, -1, -1, -1, -1, -1, -1, -1, -1, -1, -1, -1, -1, -1, -1, -1, -1, -1, -1, -1, -1, -1, -1, -1, -1, -1, -1, -1, -1, -1, -1, -1, -1, -1, -1, -1, -1, -1, -1, -1, -1, -1, -1, -1, -1, -1, -1, -1, 1, -1, -1
       | -1, -1, -1, -1, -1, -1, -1, -1, -1, -1, -1, -1, -1, -1, -1, -1, -1, -1, -1, -1, -1, -1, -1, -1, -1, -1, -1, -1, 1, -1, -1, -1, -1, -1, -1, -1, -1, -1, -1, -1, -1, -1, -1, -1, -1, -1, -1, -1, -1, -1, -1, -1, -1, -1, -1, -1, -1, -1, -1, -1, -1, -1, -1, -1, -1, -1, -1, -1, -1, -1, -1, -1, -1, -1, -1, -1, -1, -1, -1, -1, -1, -1, -1, -1, -1, -1, -1, -1, -1, -1, -1, -1, -1, -1, -1, -1, -1, 1, -1
       | -1, -1, -1, -1, -1, -1, -1, -1, -1, -1, -1, -1, -1, -1, -1, -1, -1, -1, -1, -1, -1, -1, -1, -1, -1, -1, -1, -1, -1, 1, -1, -1, -1, -1, -1, -1, -1, -1, -1, -1, -1, -1, -1, -1, -1, -1, -1, -1, -1, -1, -1, -1, -1, -1, -1, -1, -1, -1, -1, -1, -1, -1, -1, -1, -1, -1, -1, -1, -1, -1, -1, -1, -1, -1, -1, -1, -1, -1, -1, -1, -1, -1, -1, -1, -1, -1, -1, -1, -1, -1, -1, -1, -1, -1, -1, -1, -1, -1, 1 |]);

% ---- platform ----
P = 8;
nFCR = 8;
nCoreTypes = 3;
nModes = 1;
ctype = [1, 1, 1, 2, 2, 2, 3, 3];
fcr = [1, 2, 3, 4, 5, 6, 7, 8];
core_model = ["proc_0", "proc_1", "proc_2"];
max_sil = [4, 4, 4];
core_mem = [64000, 64000, 64000];
partitionable = [false, false, false];
partition_cost = [0, 0, 0];
n_modes_of = [1, 1, 1];
fcr_price = [10, 10, 10, 20, 20, 20, 30, 30];
core_price = array2d(1..3, 1..1,
  [| 10
     | 20
     | 30 |]);
core_power = array2d(1..3, 1..1,
  [| 50
     | 60
     | 70 |]);

% symmetry classes: slots that are genuinely interchangeable
nSymClasses = 0;
symClassSize = [];
maxSymClassSize = 1;
symClass = array2d(1..1, 1..1,
  [| 0 |]);
nInterGroups = 3;
maxInterGroupSize = 3;
interGroupSize = [3, 3, 2];
interGroup = array2d(1..3, 1..3,
  [| 1, 2, 3
     | 4, 5, 6
     | 7, 8, 0 |]);
nTmplGroups = 3;
maxTmplGroupSize = 3;
tmplGroupSize = [3, 3, 2];
tmplGroup = array2d(1..3, 1..3,
  [| 1, 2, 3
     | 4, 5, 6
     | 7, 8, 0 |]);

% ---- timing ----
wcet = array3d(1..99, 1..3, 1..1, [3, 1000000, 1000000, 1000000, 14, 1000000, 1000000, 4, 1000000, 20, 10, 1000000, 1000000, 6, 17, 7, 1000000, 1000000, 1000000, 17, 18, 9, 11, 1000000, 1000000, 16, 1000000, 1000000, 6, 1000000, 1000000, 7, 13, 1000000, 7, 1000000, 1000000, 10, 1000000, 1000000, 6, 1000000, 10, 1000000, 11, 1000000, 1000000, 15, 15, 1000000, 3, 1000000, 1000000, 16, 1000000, 9, 5, 1000000, 13, 1000000, 15, 1000000, 1000000, 4, 1000000, 7, 15, 1000000, 1000000, 1000000, 5, 3, 1000000, 5, 1000000, 4, 1000000, 1000000, 1000000, 7, 1000000, 1000000, 1000000, 15, 1000000, 8, 1000000, 1000000, 2, 1000000, 3, 1000000, 1000000, 1, 1000000, 1000000, 1, 1000000, 1000000, 3, 1000000, 1000000, 3, 1000000, 1000000, 1000000, 14, 1000000, 1000000, 4, 1000000, 1000000, 4, 1000000, 1000000, 14, 1000000, 1000000, 14, 1000000, 1000000, 4, 1000000, 1000000, 1, 1000000, 1000000, 1, 1000000, 1000000, 4, 1000000, 1000000, 4, 1000000, 20, 10, 1000000, 6, 3, 1000000, 6, 3, 1000000, 20, 10, 1000000, 20, 10, 1000000, 1000000, 6, 17, 1000000, 2, 5, 1000000, 2, 5, 1000000, 6, 17, 1000000, 6, 17, 7, 1000000, 1000000, 2, 1000000, 1000000, 2, 1000000, 1000000, 7, 1000000, 1000000, 7, 1000000, 1000000, 1000000, 17, 18, 1000000, 5, 5, 1000000, 5, 5, 1000000, 17, 18, 1000000, 17, 18, 9, 11, 1000000, 3, 3, 1000000, 3, 3, 1000000, 9, 11, 1000000, 9, 11, 1000000, 1000000, 5, 1000000, 1000000, 2, 1000000, 1000000, 2, 4, 1000000, 2, 1000000, 1000000, 3, 1000000, 1000000, 2, 1000000, 3, 1000000, 3, 1000000, 1000000, 4, 4, 1000000, 1, 15, 1000000, 3, 1000000, 1000000, 16, 1000000, 3, 2, 1000000, 9, 5, 1000000, 13, 1000000, 4, 1000000, 1000000, 15, 1000000, 1000000, 4, 1000000, 7, 4, 1000000, 1000000, 15, 1000000, 1000000, 1000000, 5, 3, 1000000, 2, 1000000, 1000000, 5, 1000000, 4, 1000000, 1000000, 1000000, 2, 1000000, 1000000, 7, 1000000, 1000000, 1000000, 15, 1000000, 2, 1000000, 1000000, 8, 1000000, 1000000, 2, 1000000]);
mem_req = [1, 1, 1, 1, 1, 1, 1, 1, 1, 1, 1, 1, 1, 1, 1, 1, 1, 1, 1, 1, 1, 1, 1, 1, 1, 1, 1, 1, 1, 1, 1, 1, 1, 1, 1, 1, 1, 1, 1, 1, 1, 1, 1, 1, 1, 1, 1, 1, 1, 1, 1, 1, 1, 1, 1, 1, 1, 1, 1, 1, 1, 1, 1, 1, 1, 1, 1, 1, 1, 1, 1, 1, 1, 1, 1, 1, 1, 1, 1, 1, 1, 1, 1, 1, 1, 1, 1, 1, 1, 1, 1, 1, 1, 1, 1, 1, 1, 1, 1];

% ---- safety ----
sil_req_parent = [3, 3, 3, 3, 3, 3, 3, 3, 2, 2, 2, 2, 2, 2, 2, 2, 1, 0, 1, 0, 1, 0, 1, 0, 1, 0, 1, 0, 1, 0, 3, 3, 3, 3, 3, 3, 3, 3, 3, 3, 3, 3, 3, 3, 3, 3, 3, 3, 3, 3, 3, 3, 3, 3, 3, 3, 3, 3, 3, 3, 3, 3, 3, 3, 3, 3, 3, 3, 3, 3, 2, 2, 2, 2, 2, 2, 2, 2, 1, 1, 0, 1, 1, 0, 1, 1, 0, 1, 1, 0, 1, 1, 0, 1, 1, 0, 1, 1, 0];
dev_base = [100, 100, 100, 100, 100, 100, 100, 100, 100, 100, 100, 100, 100, 100, 100, 100, 100, 100, 100, 100, 100, 100, 100, 100, 100, 100, 100, 100, 100, 100, 100, 100, 100, 100, 100, 100, 100, 100, 100, 100, 100, 100, 100, 100, 100, 100, 100, 100, 100, 100, 100, 100, 100, 100, 100, 100, 100, 100, 100, 100, 100, 100, 100, 100, 100, 100, 100, 100, 100, 100, 100, 100, 100, 100, 100, 100, 100, 100, 100, 100, 100, 100, 100, 100, 100, 100, 100, 100, 100, 100, 100, 100, 100, 100, 100, 100, 100, 100, 100];
dev_k = array1d(0..4, [100, 113, 225, 518, 906]);
allow_promotion = true;

% ---- design constraints ----
period_ub = [832];
min_wcet = [3, 14, 4, 10, 6, 7, 17, 9, 16, 6, 7, 7, 10, 6, 10, 15, 3, 16, 5, 13, 15, 4, 15, 3, 5, 4, 7, 15, 8, 2, 3, 1, 1, 3, 3, 14, 4, 4, 14, 14, 4, 1, 1, 4, 4, 10, 3, 3, 10, 10, 6, 2, 2, 6, 6, 7, 2, 2, 7, 7, 17, 5, 5, 17, 17, 9, 3, 3, 9, 9, 5, 2, 2, 2, 3, 2, 3, 4, 1, 3, 16, 2, 5, 13, 4, 15, 4, 4, 15, 3, 2, 5, 4, 2, 7, 15, 2, 8, 2];
min_procs = [1];
period_mode_partitioned = false;

% ---- latency ----
nLatCon = 0;
lat_src = [];
lat_dst = [];
lat_rho = [];
lat_ub  = [];

% ---- safety patterns: guarded superposition ----
nPat = 9;
pat_name = ["none", "low_sil_doer_checker", "two_of_two_high_sil", "high_sil_isolated_checker", "mixed_sil_doer_checker", "same_cpu_doer_checker", "dual_two_of_two", "one_of_two_failover", "low_sil_diverse_doer_checker"];
pat_recurring = [0, 2, 2, 2, 3, 1, 4, 2, 2];
pat_allowed = array2d(1..99, 1..9,
  [| false, false, true, true, true, false, true, false, false
     | false, false, true, true, true, false, true, false, false
     | false, false, true, true, true, false, true, false, false
     | false, false, true, true, true, false, true, false, false
     | false, false, true, true, true, false, true, false, false
     | false, false, true, true, true, false, true, false, false
     | false, false, true, true, true, false, true, false, false
     | false, false, true, true, true, false, true, false, false
     | false, true, false, false, false, false, false, false, true
     | false, true, false, false, false, false, false, false, true
     | false, true, false, false, false, false, false, false, true
     | false, true, false, false, false, false, false, false, true
     | false, true, false, false, false, false, false, false, true
     | false, true, false, false, false, false, false, false, true
     | false, true, false, false, false, false, false, false, true
     | false, true, false, false, false, false, false, false, true
     | true, true, false, false, false, false, false, true, true
     | true, false, false, false, false, false, false, true, false
     | true, true, false, false, false, false, false, true, true
     | true, false, false, false, false, false, false, true, false
     | true, true, false, false, false, false, false, true, true
     | true, false, false, false, false, false, false, true, false
     | true, true, false, false, false, false, false, true, true
     | true, false, false, false, false, false, false, true, false
     | true, true, false, false, false, false, false, true, true
     | true, false, false, false, false, false, false, true, false
     | true, true, false, false, false, false, false, true, true
     | true, false, false, false, false, false, false, true, false
     | true, true, false, false, false, false, false, true, true
     | true, false, false, false, false, false, false, true, false
     | false, false, true, true, true, false, true, false, false
     | false, false, true, true, true, false, true, false, false
     | false, false, true, true, true, false, true, false, false
     | false, false, true, true, true, false, true, false, false
     | false, false, true, true, true, false, true, false, false
     | false, false, true, true, true, false, true, false, false
     | false, false, true, true, true, false, true, false, false
     | false, false, true, true, true, false, true, false, false
     | false, false, true, true, true, false, true, false, false
     | false, false, true, true, true, false, true, false, false
     | false, false, true, true, true, false, true, false, false
     | false, false, true, true, true, false, true, false, false
     | false, false, true, true, true, false, true, false, false
     | false, false, true, true, true, false, true, false, false
     | false, false, true, true, true, false, true, false, false
     | false, false, true, true, true, false, true, false, false
     | false, false, true, true, true, false, true, false, false
     | false, false, true, true, true, false, true, false, false
     | false, false, true, true, true, false, true, false, false
     | false, false, true, true, true, false, true, false, false
     | false, false, true, true, true, false, true, false, false
     | false, false, true, true, true, false, true, false, false
     | false, false, true, true, true, false, true, false, false
     | false, false, true, true, true, false, true, false, false
     | false, false, true, true, true, false, true, false, false
     | false, false, true, true, true, false, true, false, false
     | false, false, true, true, true, false, true, false, false
     | false, false, true, true, true, false, true, false, false
     | false, false, true, true, true, false, true, false, false
     | false, false, true, true, true, false, true, false, false
     | false, false, true, true, true, false, true, false, false
     | false, false, true, true, true, false, true, false, false
     | false, false, true, true, true, false, true, false, false
     | false, false, true, true, true, false, true, false, false
     | false, false, true, true, true, false, true, false, false
     | false, false, true, true, true, false, true, false, false
     | false, false, true, true, true, false, true, false, false
     | false, false, true, true, true, false, true, false, false
     | false, false, true, true, true, false, true, false, false
     | false, false, true, true, true, false, true, false, false
     | false, true, false, false, false, false, false, false, true
     | false, true, false, false, false, false, false, false, true
     | false, true, false, false, false, false, false, false, true
     | false, true, false, false, false, false, false, false, true
     | false, true, false, false, false, false, false, false, true
     | false, true, false, false, false, false, false, false, true
     | false, true, false, false, false, false, false, false, true
     | false, true, false, false, false, false, false, false, true
     | true, true, false, false, false, false, false, true, true
     | true, true, false, false, false, false, false, true, true
     | true, false, false, false, false, false, false, true, false
     | true, true, false, false, false, false, false, true, true
     | true, true, false, false, false, false, false, true, true
     | true, false, false, false, false, false, false, true, false
     | true, true, false, false, false, false, false, true, true
     | true, true, false, false, false, false, false, true, true
     | true, false, false, false, false, false, false, true, false
     | true, true, false, false, false, false, false, true, true
     | true, true, false, false, false, false, false, true, true
     | true, false, false, false, false, false, false, true, false
     | true, true, false, false, false, false, false, true, true
     | true, true, false, false, false, false, false, true, true
     | true, false, false, false, false, false, false, true, false
     | true, true, false, false, false, false, false, true, true
     | true, true, false, false, false, false, false, true, true
     | true, false, false, false, false, false, false, true, false
     | true, true, false, false, false, false, false, true, true
     | true, true, false, false, false, false, false, true, true
     | true, false, false, false, false, false, false, true, false |]);
par_owner = [1, 2, 3, 4, 5, 6, 7, 8, 9, 10, 11, 12, 13, 14, 15, 16, 17, 18, 19, 20, 21, 22, 23, 24, 25, 26, 27, 28, 29, 30, 1, 1, 1, 1, 1, 2, 2, 2, 2, 2, 3, 3, 3, 3, 3, 4, 4, 4, 4, 4, 5, 5, 5, 5, 5, 6, 6, 6, 6, 6, 7, 7, 7, 7, 7, 8, 8, 8, 8, 8, 9, 10, 11, 12, 13, 14, 15, 16, 17, 17, 18, 19, 19, 20, 21, 21, 22, 23, 23, 24, 25, 25, 26, 27, 27, 28, 29, 29, 30];
node_owner = [1, 2, 3, 4, 5, 6, 7, 8, 9, 10, 11, 12, 13, 14, 15, 16, 17, 18, 19, 20, 21, 22, 23, 24, 25, 26, 27, 28, 29, 30, 1, 1, 1, 1, 1, 2, 2, 2, 2, 2, 3, 3, 3, 3, 3, 4, 4, 4, 4, 4, 5, 5, 5, 5, 5, 6, 6, 6, 6, 6, 7, 7, 7, 7, 7, 8, 8, 8, 8, 8, 9, 10, 11, 12, 13, 14, 15, 16, 17, 17, 18, 19, 19, 20, 21, 21, 22, 23, 23, 24, 25, 25, 26, 27, 27, 28, 29, 29, 30];
owner_node = [1, 2, 3, 4, 5, 6, 7, 8, 9, 10, 11, 12, 13, 14, 15, 16, 17, 18, 19, 20, 21, 22, 23, 24, 25, 26, 27, 28, 29, 30, 1, 1, 1, 1, 1, 2, 2, 2, 2, 2, 3, 3, 3, 3, 3, 4, 4, 4, 4, 4, 5, 5, 5, 5, 5, 6, 6, 6, 6, 6, 7, 7, 7, 7, 7, 8, 8, 8, 8, 8, 9, 10, 11, 12, 13, 14, 15, 16, 17, 17, 18, 19, 19, 20, 21, 21, 22, 23, 23, 24, 25, 25, 26, 27, 27, 28, 29, 29, 30];
node_guard = array2d(1..99, 1..9,
  [| true, true, true, true, true, true, true, true, true
     | true, true, true, true, true, true, true, true, true
     | true, true, true, true, true, true, true, true, true
     | true, true, true, true, true, true, true, true, true
     | true, true, true, true, true, true, true, true, true
     | true, true, true, true, true, true, true, true, true
     | true, true, true, true, true, true, true, true, true
     | true, true, true, true, true, true, true, true, true
     | true, true, true, true, true, true, true, true, true
     | true, true, true, true, true, true, true, true, true
     | true, true, true, true, true, true, true, true, true
     | true, true, true, true, true, true, true, true, true
     | true, true, true, true, true, true, true, true, true
     | true, true, true, true, true, true, true, true, true
     | true, true, true, true, true, true, true, true, true
     | true, true, true, true, true, true, true, true, true
     | true, true, true, true, true, true, true, true, true
     | true, true, true, true, true, true, true, true, true
     | true, true, true, true, true, true, true, true, true
     | true, true, true, true, true, true, true, true, true
     | true, true, true, true, true, true, true, true, true
     | true, true, true, true, true, true, true, true, true
     | true, true, true, true, true, true, true, true, true
     | true, true, true, true, true, true, true, true, true
     | true, true, true, true, true, true, true, true, true
     | true, true, true, true, true, true, true, true, true
     | true, true, true, true, true, true, true, true, true
     | true, true, true, true, true, true, true, true, true
     | true, true, true, true, true, true, true, true, true
     | true, true, true, true, true, true, true, true, true
     | false, false, true, false, false, false, true, false, false
     | false, false, false, true, true, false, false, false, false
     | false, false, false, false, true, false, false, false, false
     | false, false, false, false, false, false, true, false, false
     | false, false, false, false, false, false, true, false, false
     | false, false, true, false, false, false, true, false, false
     | false, false, false, true, true, false, false, false, false
     | false, false, false, false, true, false, false, false, false
     | false, false, false, false, false, false, true, false, false
     | false, false, false, false, false, false, true, false, false
     | false, false, true, false, false, false, true, false, false
     | false, false, false, true, true, false, false, false, false
     | false, false, false, false, true, false, false, false, false
     | false, false, false, false, false, false, true, false, false
     | false, false, false, false, false, false, true, false, false
     | false, false, true, false, false, false, true, false, false
     | false, false, false, true, true, false, false, false, false
     | false, false, false, false, true, false, false, false, false
     | false, false, false, false, false, false, true, false, false
     | false, false, false, false, false, false, true, false, false
     | false, false, true, false, false, false, true, false, false
     | false, false, false, true, true, false, false, false, false
     | false, false, false, false, true, false, false, false, false
     | false, false, false, false, false, false, true, false, false
     | false, false, false, false, false, false, true, false, false
     | false, false, true, false, false, false, true, false, false
     | false, false, false, true, true, false, false, false, false
     | false, false, false, false, true, false, false, false, false
     | false, false, false, false, false, false, true, false, false
     | false, false, false, false, false, false, true, false, false
     | false, false, true, false, false, false, true, false, false
     | false, false, false, true, true, false, false, false, false
     | false, false, false, false, true, false, false, false, false
     | false, false, false, false, false, false, true, false, false
     | false, false, false, false, false, false, true, false, false
     | false, false, true, false, false, false, true, false, false
     | false, false, false, true, true, false, false, false, false
     | false, false, false, false, true, false, false, false, false
     | false, false, false, false, false, false, true, false, false
     | false, false, false, false, false, false, true, false, false
     | false, true, false, false, false, false, false, false, true
     | false, true, false, false, false, false, false, false, true
     | false, true, false, false, false, false, false, false, true
     | false, true, false, false, false, false, false, false, true
     | false, true, false, false, false, false, false, false, true
     | false, true, false, false, false, false, false, false, true
     | false, true, false, false, false, false, false, false, true
     | false, true, false, false, false, false, false, false, true
     | false, true, false, false, false, false, false, false, true
     | false, false, false, false, false, false, false, true, false
     | false, false, false, false, false, false, false, true, false
     | false, true, false, false, false, false, false, false, true
     | false, false, false, false, false, false, false, true, false
     | false, false, false, false, false, false, false, true, false
     | false, true, false, false, false, false, false, false, true
     | false, false, false, false, false, false, false, true, false
     | false, false, false, false, false, false, false, true, false
     | false, true, false, false, false, false, false, false, true
     | false, false, false, false, false, false, false, true, false
     | false, false, false, false, false, false, false, true, false
     | false, true, false, false, false, false, false, false, true
     | false, false, false, false, false, false, false, true, false
     | false, false, false, false, false, false, false, true, false
     | false, true, false, false, false, false, false, false, true
     | false, false, false, false, false, false, false, true, false
     | false, false, false, false, false, false, false, true, false
     | false, true, false, false, false, false, false, false, true
     | false, false, false, false, false, false, false, true, false
     | false, false, false, false, false, false, false, true, false |]);
nPE = 356;
pe_src = [1, 31, 23, 14, 1, 32, 23, 14, 1, 1, 32, 33, 32, 23, 14, 23, 14, 1, 31, 34, 35, 34, 23, 14, 23, 14, 23, 14, 2, 36, 1, 2, 37, 1, 2, 2, 37, 38, 37, 1, 1, 2, 36, 39, 40, 39, 1, 1, 1, 3, 41, 2, 4, 3, 42, 2, 4, 3, 3, 42, 43, 42, 2, 4, 2, 4, 3, 41, 44, 45, 44, 2, 4, 2, 4, 2, 4, 4, 46, 6, 15, 27, 4, 47, 6, 15, 27, 4, 4, 47, 48, 47, 6, 15, 27, 6, 15, 27, 4, 46, 49, 50, 49, 6, 15, 27, 6, 15, 27, 6, 15, 27, 5, 51, 4, 10, 5, 52, 4, 10, 5, 5, 52, 53, 52, 4, 10, 4, 10, 5, 51, 54, 55, 54, 4, 10, 4, 10, 4, 10, 6, 56, 2, 6, 57, 2, 6, 6, 57, 58, 57, 2, 2, 6, 56, 59, 60, 59, 2, 2, 2, 7, 61, 5, 7, 62, 5, 7, 7, 62, 63, 62, 5, 5, 7, 61, 64, 65, 64, 5, 5, 5, 8, 66, 6, 12, 8, 67, 6, 12, 8, 8, 67, 68, 67, 6, 12, 6, 12, 8, 66, 69, 70, 69, 6, 12, 6, 12, 6, 12, 9, 71, 8, 9, 71, 8, 10, 72, 16, 3, 12, 10, 72, 16, 3, 12, 11, 73, 7, 30, 11, 73, 7, 30, 12, 74, 13, 30, 12, 74, 13, 30, 13, 75, 18, 13, 75, 18, 14, 76, 10, 14, 76, 10, 15, 77, 17, 26, 8, 15, 77, 17, 26, 8, 16, 78, 28, 3, 16, 78, 28, 3, 17, 79, 25, 80, 25, 17, 79, 25, 81, 22, 26, 19, 82, 14, 83, 14, 19, 82, 14, 84, 8, 21, 85, 11, 17, 9, 86, 11, 17, 9, 21, 85, 11, 17, 9, 87, 24, 23, 88, 29, 89, 29, 23, 88, 29, 90, 20, 25, 91, 18, 92, 18, 25, 91, 18, 93, 19, 27, 94, 2, 21, 95, 2, 21, 27, 94, 2, 21, 96, 27, 29, 97, 29, 13, 98, 29, 13, 29, 97, 29, 13, 99, 26, 13];
pe_dst = [31, 1, 31, 31, 32, 1, 32, 32, 32, 33, 33, 32, 1, 32, 32, 33, 33, 31, 1, 35, 34, 1, 31, 31, 34, 34, 35, 35, 36, 2, 36, 37, 2, 37, 37, 38, 38, 37, 2, 37, 38, 36, 2, 40, 39, 2, 36, 39, 40, 41, 3, 41, 41, 42, 3, 42, 42, 42, 43, 43, 42, 3, 42, 42, 43, 43, 41, 3, 45, 44, 3, 41, 41, 44, 44, 45, 45, 46, 4, 46, 46, 46, 47, 4, 47, 47, 47, 47, 48, 48, 47, 4, 47, 47, 47, 48, 48, 48, 46, 4, 50, 49, 4, 46, 46, 46, 49, 49, 49, 50, 50, 50, 51, 5, 51, 51, 52, 5, 52, 52, 52, 53, 53, 52, 5, 52, 52, 53, 53, 51, 5, 55, 54, 5, 51, 51, 54, 54, 55, 55, 56, 6, 56, 57, 6, 57, 57, 58, 58, 57, 6, 57, 58, 56, 6, 60, 59, 6, 56, 59, 60, 61, 7, 61, 62, 7, 62, 62, 63, 63, 62, 7, 62, 63, 61, 7, 65, 64, 7, 61, 64, 65, 66, 8, 66, 66, 67, 8, 67, 67, 67, 68, 68, 67, 8, 67, 67, 68, 68, 66, 8, 70, 69, 8, 66, 66, 69, 69, 70, 70, 71, 9, 71, 71, 9, 71, 72, 10, 72, 72, 72, 72, 10, 72, 72, 72, 73, 11, 73, 73, 73, 11, 73, 73, 74, 12, 74, 74, 74, 12, 74, 74, 75, 13, 75, 75, 13, 75, 76, 14, 76, 76, 14, 76, 77, 15, 77, 77, 77, 77, 15, 77, 77, 77, 78, 16, 78, 78, 78, 16, 78, 78, 79, 17, 79, 17, 80, 79, 17, 79, 18, 81, 81, 82, 19, 82, 19, 83, 82, 19, 82, 20, 84, 85, 21, 85, 85, 85, 21, 86, 86, 86, 85, 21, 85, 85, 85, 22, 87, 88, 23, 88, 23, 89, 88, 23, 88, 24, 90, 91, 25, 91, 25, 92, 91, 25, 91, 26, 93, 94, 27, 94, 94, 27, 95, 95, 94, 27, 94, 94, 28, 96, 97, 29, 97, 97, 29, 98, 98, 97, 29, 97, 97, 30, 99, 99];
pe_tok = [0, 1, 1, 2, 0, 1, 1, 2, 0, 0, 1, 1, 1, 1, 2, 1, 2, 0, 1, 0, 1, 1, 1, 2, 1, 2, 1, 2, 0, 1, 0, 0, 1, 0, 0, 0, 1, 1, 1, 0, 0, 0, 1, 0, 1, 1, 0, 0, 0, 0, 1, 2, 0, 0, 1, 2, 0, 0, 0, 1, 1, 1, 2, 0, 2, 0, 0, 1, 0, 1, 1, 2, 0, 2, 0, 2, 0, 0, 1, 1, 1, 0, 0, 1, 1, 1, 0, 0, 0, 1, 1, 1, 1, 1, 0, 1, 1, 0, 0, 1, 0, 1, 1, 1, 1, 0, 1, 1, 0, 1, 1, 0, 0, 1, 0, 0, 0, 1, 0, 0, 0, 0, 1, 1, 1, 0, 0, 0, 0, 0, 1, 0, 1, 1, 0, 0, 0, 0, 0, 0, 0, 1, 1, 0, 1, 1, 0, 0, 1, 1, 1, 1, 1, 0, 1, 0, 1, 1, 1, 1, 1, 0, 1, 0, 0, 1, 0, 0, 0, 1, 1, 1, 0, 0, 0, 1, 0, 1, 1, 0, 0, 0, 0, 1, 0, 1, 0, 1, 0, 1, 0, 0, 1, 1, 1, 0, 1, 0, 1, 0, 1, 0, 1, 1, 0, 1, 0, 1, 0, 1, 0, 1, 0, 0, 1, 0, 0, 1, 0, 0, 1, 0, 1, 0, 0, 1, 0, 1, 0, 1, 0, 1, 0, 1, 0, 1, 0, 0, 0, 1, 0, 0, 0, 1, 0, 0, 1, 0, 0, 1, 0, 0, 1, 0, 0, 1, 0, 1, 0, 0, 1, 0, 1, 0, 0, 1, 0, 0, 0, 1, 0, 0, 0, 1, 0, 1, 0, 0, 1, 0, 1, 0, 0, 0, 1, 0, 1, 0, 0, 1, 0, 1, 0, 0, 1, 0, 0, 1, 1, 0, 0, 1, 0, 1, 0, 0, 1, 1, 0, 0, 1, 0, 1, 0, 0, 1, 0, 1, 0, 0, 1, 1, 1, 1, 0, 1, 1, 1, 0, 0, 1, 2, 1, 1, 2, 1, 0, 1, 2, 1, 1, 0, 0, 1, 1, 0, 1, 1, 0, 0, 1, 1, 0, 1, 0, 0];
pe_owner = [1, 1, 1, 1, 1, 1, 1, 1, 1, 1, 1, 1, 1, 1, 1, 1, 1, 1, 1, 1, 1, 1, 1, 1, 1, 1, 1, 1, 2, 2, 2, 2, 2, 2, 2, 2, 2, 2, 2, 2, 2, 2, 2, 2, 2, 2, 2, 2, 2, 3, 3, 3, 3, 3, 3, 3, 3, 3, 3, 3, 3, 3, 3, 3, 3, 3, 3, 3, 3, 3, 3, 3, 3, 3, 3, 3, 3, 4, 4, 4, 4, 4, 4, 4, 4, 4, 4, 4, 4, 4, 4, 4, 4, 4, 4, 4, 4, 4, 4, 4, 4, 4, 4, 4, 4, 4, 4, 4, 4, 4, 4, 4, 5, 5, 5, 5, 5, 5, 5, 5, 5, 5, 5, 5, 5, 5, 5, 5, 5, 5, 5, 5, 5, 5, 5, 5, 5, 5, 5, 5, 6, 6, 6, 6, 6, 6, 6, 6, 6, 6, 6, 6, 6, 6, 6, 6, 6, 6, 6, 6, 6, 7, 7, 7, 7, 7, 7, 7, 7, 7, 7, 7, 7, 7, 7, 7, 7, 7, 7, 7, 7, 7, 8, 8, 8, 8, 8, 8, 8, 8, 8, 8, 8, 8, 8, 8, 8, 8, 8, 8, 8, 8, 8, 8, 8, 8, 8, 8, 8, 8, 9, 9, 9, 9, 9, 9, 10, 10, 10, 10, 10, 10, 10, 10, 10, 10, 11, 11, 11, 11, 11, 11, 11, 11, 12, 12, 12, 12, 12, 12, 12, 12, 13, 13, 13, 13, 13, 13, 14, 14, 14, 14, 14, 14, 15, 15, 15, 15, 15, 15, 15, 15, 15, 15, 16, 16, 16, 16, 16, 16, 16, 16, 17, 17, 17, 17, 17, 17, 17, 17, 18, 18, 18, 19, 19, 19, 19, 19, 19, 19, 19, 20, 20, 21, 21, 21, 21, 21, 21, 21, 21, 21, 21, 21, 21, 21, 21, 22, 22, 23, 23, 23, 23, 23, 23, 23, 23, 24, 24, 25, 25, 25, 25, 25, 25, 25, 25, 26, 26, 27, 27, 27, 27, 27, 27, 27, 27, 27, 27, 27, 28, 28, 29, 29, 29, 29, 29, 29, 29, 29, 29, 29, 29, 30, 30, 30];
pe_guard = array2d(1..356, 1..9,
  [| false, false, true, false, false, false, false, false, false
     | false, false, true, false, false, false, false, false, false
     | false, false, true, false, false, false, false, false, false
     | false, false, true, false, false, false, false, false, false
     | false, false, false, true, false, false, false, false, false
     | false, false, false, true, false, false, false, false, false
     | false, false, false, true, false, false, false, false, false
     | false, false, false, true, false, false, false, false, false
     | false, false, false, false, true, false, false, false, false
     | false, false, false, false, true, false, false, false, false
     | false, false, false, false, true, false, false, false, false
     | false, false, false, false, true, false, false, false, false
     | false, false, false, false, true, false, false, false, false
     | false, false, false, false, true, false, false, false, false
     | false, false, false, false, true, false, false, false, false
     | false, false, false, false, true, false, false, false, false
     | false, false, false, false, true, false, false, false, false
     | false, false, false, false, false, false, true, false, false
     | false, false, false, false, false, false, true, false, false
     | false, false, false, false, false, false, true, false, false
     | false, false, false, false, false, false, true, false, false
     | false, false, false, false, false, false, true, false, false
     | false, false, false, false, false, false, true, false, false
     | false, false, false, false, false, false, true, false, false
     | false, false, false, false, false, false, true, false, false
     | false, false, false, false, false, false, true, false, false
     | false, false, false, false, false, false, true, false, false
     | false, false, false, false, false, false, true, false, false
     | false, false, true, false, false, false, false, false, false
     | false, false, true, false, false, false, false, false, false
     | false, false, true, false, false, false, false, false, false
     | false, false, false, true, false, false, false, false, false
     | false, false, false, true, false, false, false, false, false
     | false, false, false, true, false, false, false, false, false
     | false, false, false, false, true, false, false, false, false
     | false, false, false, false, true, false, false, false, false
     | false, false, false, false, true, false, false, false, false
     | false, false, false, false, true, false, false, false, false
     | false, false, false, false, true, false, false, false, false
     | false, false, false, false, true, false, false, false, false
     | false, false, false, false, true, false, false, false, false
     | false, false, false, false, false, false, true, false, false
     | false, false, false, false, false, false, true, false, false
     | false, false, false, false, false, false, true, false, false
     | false, false, false, false, false, false, true, false, false
     | false, false, false, false, false, false, true, false, false
     | false, false, false, false, false, false, true, false, false
     | false, false, false, false, false, false, true, false, false
     | false, false, false, false, false, false, true, false, false
     | false, false, true, false, false, false, false, false, false
     | false, false, true, false, false, false, false, false, false
     | false, false, true, false, false, false, false, false, false
     | false, false, true, false, false, false, false, false, false
     | false, false, false, true, false, false, false, false, false
     | false, false, false, true, false, false, false, false, false
     | false, false, false, true, false, false, false, false, false
     | false, false, false, true, false, false, false, false, false
     | false, false, false, false, true, false, false, false, false
     | false, false, false, false, true, false, false, false, false
     | false, false, false, false, true, false, false, false, false
     | false, false, false, false, true, false, false, false, false
     | false, false, false, false, true, false, false, false, false
     | false, false, false, false, true, false, false, false, false
     | false, false, false, false, true, false, false, false, false
     | false, false, false, false, true, false, false, false, false
     | false, false, false, false, true, false, false, false, false
     | false, false, false, false, false, false, true, false, false
     | false, false, false, false, false, false, true, false, false
     | false, false, false, false, false, false, true, false, false
     | false, false, false, false, false, false, true, false, false
     | false, false, false, false, false, false, true, false, false
     | false, false, false, false, false, false, true, false, false
     | false, false, false, false, false, false, true, false, false
     | false, false, false, false, false, false, true, false, false
     | false, false, false, false, false, false, true, false, false
     | false, false, false, false, false, false, true, false, false
     | false, false, false, false, false, false, true, false, false
     | false, false, true, false, false, false, false, false, false
     | false, false, true, false, false, false, false, false, false
     | false, false, true, false, false, false, false, false, false
     | false, false, true, false, false, false, false, false, false
     | false, false, true, false, false, false, false, false, false
     | false, false, false, true, false, false, false, false, false
     | false, false, false, true, false, false, false, false, false
     | false, false, false, true, false, false, false, false, false
     | false, false, false, true, false, false, false, false, false
     | false, false, false, true, false, false, false, false, false
     | false, false, false, false, true, false, false, false, false
     | false, false, false, false, true, false, false, false, false
     | false, false, false, false, true, false, false, false, false
     | false, false, false, false, true, false, false, false, false
     | false, false, false, false, true, false, false, false, false
     | false, false, false, false, true, false, false, false, false
     | false, false, false, false, true, false, false, false, false
     | false, false, false, false, true, false, false, false, false
     | false, false, false, false, true, false, false, false, false
     | false, false, false, false, true, false, false, false, false
     | false, false, false, false, true, false, false, false, false
     | false, false, false, false, false, false, true, false, false
     | false, false, false, false, false, false, true, false, false
     | false, false, false, false, false, false, true, false, false
     | false, false, false, false, false, false, true, false, false
     | false, false, false, false, false, false, true, false, false
     | false, false, false, false, false, false, true, false, false
     | false, false, false, false, false, false, true, false, false
     | false, false, false, false, false, false, true, false, false
     | false, false, false, false, false, false, true, false, false
     | false, false, false, false, false, false, true, false, false
     | false, false, false, false, false, false, true, false, false
     | false, false, false, false, false, false, true, false, false
     | false, false, false, false, false, false, true, false, false
     | false, false, false, false, false, false, true, false, false
     | false, false, true, false, false, false, false, false, false
     | false, false, true, false, false, false, false, false, false
     | false, false, true, false, false, false, false, false, false
     | false, false, true, false, false, false, false, false, false
     | false, false, false, true, false, false, false, false, false
     | false, false, false, true, false, false, false, false, false
     | false, false, false, true, false, false, false, false, false
     | false, false, false, true, false, false, false, false, false
     | false, false, false, false, true, false, false, false, false
     | false, false, false, false, true, false, false, false, false
     | false, false, false, false, true, false, false, false, false
     | false, false, false, false, true, false, false, false, false
     | false, false, false, false, true, false, false, false, false
     | false, false, false, false, true, false, false, false, false
     | false, false, false, false, true, false, false, false, false
     | false, false, false, false, true, false, false, false, false
     | false, false, false, false, true, false, false, false, false
     | false, false, false, false, false, false, true, false, false
     | false, false, false, false, false, false, true, false, false
     | false, false, false, false, false, false, true, false, false
     | false, false, false, false, false, false, true, false, false
     | false, false, false, false, false, false, true, false, false
     | false, false, false, false, false, false, true, false, false
     | false, false, false, false, false, false, true, false, false
     | false, false, false, false, false, false, true, false, false
     | false, false, false, false, false, false, true, false, false
     | false, false, false, false, false, false, true, false, false
     | false, false, false, false, false, false, true, false, false
     | false, false, true, false, false, false, false, false, false
     | false, false, true, false, false, false, false, false, false
     | false, false, true, false, false, false, false, false, false
     | false, false, false, true, false, false, false, false, false
     | false, false, false, true, false, false, false, false, false
     | false, false, false, true, false, false, false, false, false
     | false, false, false, false, true, false, false, false, false
     | false, false, false, false, true, false, false, false, false
     | false, false, false, false, true, false, false, false, false
     | false, false, false, false, true, false, false, false, false
     | false, false, false, false, true, false, false, false, false
     | false, false, false, false, true, false, false, false, false
     | false, false, false, false, true, false, false, false, false
     | false, false, false, false, false, false, true, false, false
     | false, false, false, false, false, false, true, false, false
     | false, false, false, false, false, false, true, false, false
     | false, false, false, false, false, false, true, false, false
     | false, false, false, false, false, false, true, false, false
     | false, false, false, false, false, false, true, false, false
     | false, false, false, false, false, false, true, false, false
     | false, false, false, false, false, false, true, false, false
     | false, false, true, false, false, false, false, false, false
     | false, false, true, false, false, false, false, false, false
     | false, false, true, false, false, false, false, false, false
     | false, false, false, true, false, false, false, false, false
     | false, false, false, true, false, false, false, false, false
     | false, false, false, true, false, false, false, false, false
     | false, false, false, false, true, false, false, false, false
     | false, false, false, false, true, false, false, false, false
     | false, false, false, false, true, false, false, false, false
     | false, false, false, false, true, false, false, false, false
     | false, false, false, false, true, false, false, false, false
     | false, false, false, false, true, false, false, false, false
     | false, false, false, false, true, false, false, false, false
     | false, false, false, false, false, false, true, false, false
     | false, false, false, false, false, false, true, false, false
     | false, false, false, false, false, false, true, false, false
     | false, false, false, false, false, false, true, false, false
     | false, false, false, false, false, false, true, false, false
     | false, false, false, false, false, false, true, false, false
     | false, false, false, false, false, false, true, false, false
     | false, false, false, false, false, false, true, false, false
     | false, false, true, false, false, false, false, false, false
     | false, false, true, false, false, false, false, false, false
     | false, false, true, false, false, false, false, false, false
     | false, false, true, false, false, false, false, false, false
     | false, false, false, true, false, false, false, false, false
     | false, false, false, true, false, false, false, false, false
     | false, false, false, true, false, false, false, false, false
     | false, false, false, true, false, false, false, false, false
     | false, false, false, false, true, false, false, false, false
     | false, false, false, false, true, false, false, false, false
     | false, false, false, false, true, false, false, false, false
     | false, false, false, false, true, false, false, false, false
     | false, false, false, false, true, false, false, false, false
     | false, false, false, false, true, false, false, false, false
     | false, false, false, false, true, false, false, false, false
     | false, false, false, false, true, false, false, false, false
     | false, false, false, false, true, false, false, false, false
     | false, false, false, false, false, false, true, false, false
     | false, false, false, false, false, false, true, false, false
     | false, false, false, false, false, false, true, false, false
     | false, false, false, false, false, false, true, false, false
     | false, false, false, false, false, false, true, false, false
     | false, false, false, false, false, false, true, false, false
     | false, false, false, false, false, false, true, false, false
     | false, false, false, false, false, false, true, false, false
     | false, false, false, false, false, false, true, false, false
     | false, false, false, false, false, false, true, false, false
     | false, false, false, false, false, false, true, false, false
     | false, true, false, false, false, false, false, false, false
     | false, true, false, false, false, false, false, false, false
     | false, true, false, false, false, false, false, false, false
     | false, false, false, false, false, false, false, false, true
     | false, false, false, false, false, false, false, false, true
     | false, false, false, false, false, false, false, false, true
     | false, true, false, false, false, false, false, false, false
     | false, true, false, false, false, false, false, false, false
     | false, true, false, false, false, false, false, false, false
     | false, true, false, false, false, false, false, false, false
     | false, true, false, false, false, false, false, false, false
     | false, false, false, false, false, false, false, false, true
     | false, false, false, false, false, false, false, false, true
     | false, false, false, false, false, false, false, false, true
     | false, false, false, false, false, false, false, false, true
     | false, false, false, false, false, false, false, false, true
     | false, true, false, false, false, false, false, false, false
     | false, true, false, false, false, false, false, false, false
     | false, true, false, false, false, false, false, false, false
     | false, true, false, false, false, false, false, false, false
     | false, false, false, false, false, false, false, false, true
     | false, false, false, false, false, false, false, false, true
     | false, false, false, false, false, false, false, false, true
     | false, false, false, false, false, false, false, false, true
     | false, true, false, false, false, false, false, false, false
     | false, true, false, false, false, false, false, false, false
     | false, true, false, false, false, false, false, false, false
     | false, true, false, false, false, false, false, false, false
     | false, false, false, false, false, false, false, false, true
     | false, false, false, false, false, false, false, false, true
     | false, false, false, false, false, false, false, false, true
     | false, false, false, false, false, false, false, false, true
     | false, true, false, false, false, false, false, false, false
     | false, true, false, false, false, false, false, false, false
     | false, true, false, false, false, false, false, false, false
     | false, false, false, false, false, false, false, false, true
     | false, false, false, false, false, false, false, false, true
     | false, false, false, false, false, false, false, false, true
     | false, true, false, false, false, false, false, false, false
     | false, true, false, false, false, false, false, false, false
     | false, true, false, false, false, false, false, false, false
     | false, false, false, false, false, false, false, false, true
     | false, false, false, false, false, false, false, false, true
     | false, false, false, false, false, false, false, false, true
     | false, true, false, false, false, false, false, false, false
     | false, true, false, false, false, false, false, false, false
     | false, true, false, false, false, false, false, false, false
     | false, true, false, false, false, false, false, false, false
     | false, true, false, false, false, false, false, false, false
     | false, false, false, false, false, false, false, false, true
     | false, false, false, false, false, false, false, false, true
     | false, false, false, false, false, false, false, false, true
     | false, false, false, false, false, false, false, false, true
     | false, false, false, false, false, false, false, false, true
     | false, true, false, false, false, false, false, false, false
     | false, true, false, false, false, false, false, false, false
     | false, true, false, false, false, false, false, false, false
     | false, true, false, false, false, false, false, false, false
     | false, false, false, false, false, false, false, false, true
     | false, false, false, false, false, false, false, false, true
     | false, false, false, false, false, false, false, false, true
     | false, false, false, false, false, false, false, false, true
     | false, true, false, false, false, false, false, false, false
     | false, true, false, false, false, false, false, false, false
     | false, true, false, false, false, false, false, false, false
     | false, false, false, false, false, false, false, true, false
     | false, false, false, false, false, false, false, true, false
     | false, false, false, false, false, false, false, false, true
     | false, false, false, false, false, false, false, false, true
     | false, false, false, false, false, false, false, false, true
     | false, false, false, false, false, false, false, true, false
     | false, false, false, false, false, false, false, true, false
     | false, false, false, false, false, false, false, true, false
     | false, true, false, false, false, false, false, false, false
     | false, true, false, false, false, false, false, false, false
     | false, true, false, false, false, false, false, false, false
     | false, false, false, false, false, false, false, true, false
     | false, false, false, false, false, false, false, true, false
     | false, false, false, false, false, false, false, false, true
     | false, false, false, false, false, false, false, false, true
     | false, false, false, false, false, false, false, false, true
     | false, false, false, false, false, false, false, true, false
     | false, false, false, false, false, false, false, true, false
     | false, true, false, false, false, false, false, false, false
     | false, true, false, false, false, false, false, false, false
     | false, true, false, false, false, false, false, false, false
     | false, true, false, false, false, false, false, false, false
     | false, true, false, false, false, false, false, false, false
     | false, false, false, false, false, false, false, true, false
     | false, false, false, false, false, false, false, true, false
     | false, false, false, false, false, false, false, true, false
     | false, false, false, false, false, false, false, true, false
     | false, false, false, false, false, false, false, false, true
     | false, false, false, false, false, false, false, false, true
     | false, false, false, false, false, false, false, false, true
     | false, false, false, false, false, false, false, false, true
     | false, false, false, false, false, false, false, false, true
     | false, false, false, false, false, false, false, true, false
     | false, false, false, false, false, false, false, true, false
     | false, true, false, false, false, false, false, false, false
     | false, true, false, false, false, false, false, false, false
     | false, true, false, false, false, false, false, false, false
     | false, false, false, false, false, false, false, true, false
     | false, false, false, false, false, false, false, true, false
     | false, false, false, false, false, false, false, false, true
     | false, false, false, false, false, false, false, false, true
     | false, false, false, false, false, false, false, false, true
     | false, false, false, false, false, false, false, true, false
     | false, false, false, false, false, false, false, true, false
     | false, true, false, false, false, false, false, false, false
     | false, true, false, false, false, false, false, false, false
     | false, true, false, false, false, false, false, false, false
     | false, false, false, false, false, false, false, true, false
     | false, false, false, false, false, false, false, true, false
     | false, false, false, false, false, false, false, false, true
     | false, false, false, false, false, false, false, false, true
     | false, false, false, false, false, false, false, false, true
     | false, false, false, false, false, false, false, true, false
     | false, false, false, false, false, false, false, true, false
     | false, true, false, false, false, false, false, false, false
     | false, true, false, false, false, false, false, false, false
     | false, true, false, false, false, false, false, false, false
     | false, true, false, false, false, false, false, false, false
     | false, false, false, false, false, false, false, true, false
     | false, false, false, false, false, false, false, true, false
     | false, false, false, false, false, false, false, true, false
     | false, false, false, false, false, false, false, false, true
     | false, false, false, false, false, false, false, false, true
     | false, false, false, false, false, false, false, false, true
     | false, false, false, false, false, false, false, false, true
     | false, false, false, false, false, false, false, true, false
     | false, false, false, false, false, false, false, true, false
     | false, true, false, false, false, false, false, false, false
     | false, true, false, false, false, false, false, false, false
     | false, true, false, false, false, false, false, false, false
     | false, true, false, false, false, false, false, false, false
     | false, false, false, false, false, false, false, true, false
     | false, false, false, false, false, false, false, true, false
     | false, false, false, false, false, false, false, true, false
     | false, false, false, false, false, false, false, false, true
     | false, false, false, false, false, false, false, false, true
     | false, false, false, false, false, false, false, false, true
     | false, false, false, false, false, false, false, false, true
     | false, false, false, false, false, false, false, true, false
     | false, false, false, false, false, false, false, true, false
     | false, false, false, false, false, false, false, true, false |]);
pe_owner2 = [1, 1, 1, 1, 1, 1, 1, 1, 1, 1, 1, 1, 1, 1, 1, 1, 1, 1, 1, 1, 1, 1, 1, 1, 1, 1, 1, 1, 2, 2, 2, 2, 2, 2, 2, 2, 2, 2, 2, 2, 2, 2, 2, 2, 2, 2, 2, 2, 2, 3, 3, 3, 3, 3, 3, 3, 3, 3, 3, 3, 3, 3, 3, 3, 3, 3, 3, 3, 3, 3, 3, 3, 3, 3, 3, 3, 3, 4, 4, 4, 4, 4, 4, 4, 4, 4, 4, 4, 4, 4, 4, 4, 4, 4, 4, 4, 4, 4, 4, 4, 4, 4, 4, 4, 4, 4, 4, 4, 4, 4, 4, 4, 5, 5, 5, 5, 5, 5, 5, 5, 5, 5, 5, 5, 5, 5, 5, 5, 5, 5, 5, 5, 5, 5, 5, 5, 5, 5, 5, 5, 6, 6, 6, 6, 6, 6, 6, 6, 6, 6, 6, 6, 6, 6, 6, 6, 6, 6, 6, 6, 6, 7, 7, 7, 7, 7, 7, 7, 7, 7, 7, 7, 7, 7, 7, 7, 7, 7, 7, 7, 7, 7, 8, 8, 8, 8, 8, 8, 8, 8, 8, 8, 8, 8, 8, 8, 8, 8, 8, 8, 8, 8, 8, 8, 8, 8, 8, 8, 8, 8, 9, 9, 9, 9, 9, 9, 10, 10, 10, 10, 10, 10, 10, 10, 10, 10, 11, 11, 11, 11, 11, 11, 11, 11, 12, 12, 12, 12, 12, 12, 12, 12, 13, 13, 13, 13, 13, 13, 14, 14, 14, 14, 14, 14, 15, 15, 15, 15, 15, 15, 15, 15, 15, 15, 16, 16, 16, 16, 16, 16, 16, 16, 17, 17, 17, 17, 17, 17, 17, 17, 18, 18, 18, 19, 19, 19, 19, 19, 19, 19, 19, 20, 20, 21, 21, 21, 21, 21, 21, 21, 21, 21, 21, 21, 21, 21, 21, 22, 22, 23, 23, 23, 23, 23, 23, 23, 23, 24, 24, 25, 25, 25, 25, 25, 25, 25, 25, 26, 26, 27, 27, 27, 27, 27, 27, 27, 27, 27, 27, 27, 28, 28, 29, 29, 29, 29, 29, 29, 29, 29, 29, 29, 29, 30, 30, 30];
pe_guard2 = array2d(1..356, 1..9,
  [| true, true, true, true, true, true, true, true, true
     | true, true, true, true, true, true, true, true, true
     | true, true, true, true, true, true, true, true, true
     | true, true, true, true, true, true, true, true, true
     | true, true, true, true, true, true, true, true, true
     | true, true, true, true, true, true, true, true, true
     | true, true, true, true, true, true, true, true, true
     | true, true, true, true, true, true, true, true, true
     | true, true, true, true, true, true, true, true, true
     | true, true, true, true, true, true, true, true, true
     | true, true, true, true, true, true, true, true, true
     | true, true, true, true, true, true, true, true, true
     | true, true, true, true, true, true, true, true, true
     | true, true, true, true, true, true, true, true, true
     | true, true, true, true, true, true, true, true, true
     | true, true, true, true, true, true, true, true, true
     | true, true, true, true, true, true, true, true, true
     | true, true, true, true, true, true, true, true, true
     | true, true, true, true, true, true, true, true, true
     | true, true, true, true, true, true, true, true, true
     | true, true, true, true, true, true, true, true, true
     | true, true, true, true, true, true, true, true, true
     | true, true, true, true, true, true, true, true, true
     | true, true, true, true, true, true, true, true, true
     | true, true, true, true, true, true, true, true, true
     | true, true, true, true, true, true, true, true, true
     | true, true, true, true, true, true, true, true, true
     | true, true, true, true, true, true, true, true, true
     | true, true, true, true, true, true, true, true, true
     | true, true, true, true, true, true, true, true, true
     | true, true, true, true, true, true, true, true, true
     | true, true, true, true, true, true, true, true, true
     | true, true, true, true, true, true, true, true, true
     | true, true, true, true, true, true, true, true, true
     | true, true, true, true, true, true, true, true, true
     | true, true, true, true, true, true, true, true, true
     | true, true, true, true, true, true, true, true, true
     | true, true, true, true, true, true, true, true, true
     | true, true, true, true, true, true, true, true, true
     | true, true, true, true, true, true, true, true, true
     | true, true, true, true, true, true, true, true, true
     | true, true, true, true, true, true, true, true, true
     | true, true, true, true, true, true, true, true, true
     | true, true, true, true, true, true, true, true, true
     | true, true, true, true, true, true, true, true, true
     | true, true, true, true, true, true, true, true, true
     | true, true, true, true, true, true, true, true, true
     | true, true, true, true, true, true, true, true, true
     | true, true, true, true, true, true, true, true, true
     | true, true, true, true, true, true, true, true, true
     | true, true, true, true, true, true, true, true, true
     | true, true, true, true, true, true, true, true, true
     | true, true, true, true, true, true, true, true, true
     | true, true, true, true, true, true, true, true, true
     | true, true, true, true, true, true, true, true, true
     | true, true, true, true, true, true, true, true, true
     | true, true, true, true, true, true, true, true, true
     | true, true, true, true, true, true, true, true, true
     | true, true, true, true, true, true, true, true, true
     | true, true, true, true, true, true, true, true, true
     | true, true, true, true, true, true, true, true, true
     | true, true, true, true, true, true, true, true, true
     | true, true, true, true, true, true, true, true, true
     | true, true, true, true, true, true, true, true, true
     | true, true, true, true, true, true, true, true, true
     | true, true, true, true, true, true, true, true, true
     | true, true, true, true, true, true, true, true, true
     | true, true, true, true, true, true, true, true, true
     | true, true, true, true, true, true, true, true, true
     | true, true, true, true, true, true, true, true, true
     | true, true, true, true, true, true, true, true, true
     | true, true, true, true, true, true, true, true, true
     | true, true, true, true, true, true, true, true, true
     | true, true, true, true, true, true, true, true, true
     | true, true, true, true, true, true, true, true, true
     | true, true, true, true, true, true, true, true, true
     | true, true, true, true, true, true, true, true, true
     | true, true, true, true, true, true, true, true, true
     | true, true, true, true, true, true, true, true, true
     | true, true, true, true, true, true, true, true, true
     | true, true, true, true, true, true, true, true, true
     | true, true, true, true, true, true, true, true, true
     | true, true, true, true, true, true, true, true, true
     | true, true, true, true, true, true, true, true, true
     | true, true, true, true, true, true, true, true, true
     | true, true, true, true, true, true, true, true, true
     | true, true, true, true, true, true, true, true, true
     | true, true, true, true, true, true, true, true, true
     | true, true, true, true, true, true, true, true, true
     | true, true, true, true, true, true, true, true, true
     | true, true, true, true, true, true, true, true, true
     | true, true, true, true, true, true, true, true, true
     | true, true, true, true, true, true, true, true, true
     | true, true, true, true, true, true, true, true, true
     | true, true, true, true, true, true, true, true, true
     | true, true, true, true, true, true, true, true, true
     | true, true, true, true, true, true, true, true, true
     | true, true, true, true, true, true, true, true, true
     | true, true, true, true, true, true, true, true, true
     | true, true, true, true, true, true, true, true, true
     | true, true, true, true, true, true, true, true, true
     | true, true, true, true, true, true, true, true, true
     | true, true, true, true, true, true, true, true, true
     | true, true, true, true, true, true, true, true, true
     | true, true, true, true, true, true, true, true, true
     | true, true, true, true, true, true, true, true, true
     | true, true, true, true, true, true, true, true, true
     | true, true, true, true, true, true, true, true, true
     | true, true, true, true, true, true, true, true, true
     | true, true, true, true, true, true, true, true, true
     | true, true, true, true, true, true, true, true, true
     | true, true, true, true, true, true, true, true, true
     | true, true, true, true, true, true, true, true, true
     | true, true, true, true, true, true, true, true, true
     | true, true, true, true, true, true, true, true, true
     | true, true, true, true, true, true, true, true, true
     | true, true, true, true, true, true, true, true, true
     | true, true, true, true, true, true, true, true, true
     | true, true, true, true, true, true, true, true, true
     | true, true, true, true, true, true, true, true, true
     | true, true, true, true, true, true, true, true, true
     | true, true, true, true, true, true, true, true, true
     | true, true, true, true, true, true, true, true, true
     | true, true, true, true, true, true, true, true, true
     | true, true, true, true, true, true, true, true, true
     | true, true, true, true, true, true, true, true, true
     | true, true, true, true, true, true, true, true, true
     | true, true, true, true, true, true, true, true, true
     | true, true, true, true, true, true, true, true, true
     | true, true, true, true, true, true, true, true, true
     | true, true, true, true, true, true, true, true, true
     | true, true, true, true, true, true, true, true, true
     | true, true, true, true, true, true, true, true, true
     | true, true, true, true, true, true, true, true, true
     | true, true, true, true, true, true, true, true, true
     | true, true, true, true, true, true, true, true, true
     | true, true, true, true, true, true, true, true, true
     | true, true, true, true, true, true, true, true, true
     | true, true, true, true, true, true, true, true, true
     | true, true, true, true, true, true, true, true, true
     | true, true, true, true, true, true, true, true, true
     | true, true, true, true, true, true, true, true, true
     | true, true, true, true, true, true, true, true, true
     | true, true, true, true, true, true, true, true, true
     | true, true, true, true, true, true, true, true, true
     | true, true, true, true, true, true, true, true, true
     | true, true, true, true, true, true, true, true, true
     | true, true, true, true, true, true, true, true, true
     | true, true, true, true, true, true, true, true, true
     | true, true, true, true, true, true, true, true, true
     | true, true, true, true, true, true, true, true, true
     | true, true, true, true, true, true, true, true, true
     | true, true, true, true, true, true, true, true, true
     | true, true, true, true, true, true, true, true, true
     | true, true, true, true, true, true, true, true, true
     | true, true, true, true, true, true, true, true, true
     | true, true, true, true, true, true, true, true, true
     | true, true, true, true, true, true, true, true, true
     | true, true, true, true, true, true, true, true, true
     | true, true, true, true, true, true, true, true, true
     | true, true, true, true, true, true, true, true, true
     | true, true, true, true, true, true, true, true, true
     | true, true, true, true, true, true, true, true, true
     | true, true, true, true, true, true, true, true, true
     | true, true, true, true, true, true, true, true, true
     | true, true, true, true, true, true, true, true, true
     | true, true, true, true, true, true, true, true, true
     | true, true, true, true, true, true, true, true, true
     | true, true, true, true, true, true, true, true, true
     | true, true, true, true, true, true, true, true, true
     | true, true, true, true, true, true, true, true, true
     | true, true, true, true, true, true, true, true, true
     | true, true, true, true, true, true, true, true, true
     | true, true, true, true, true, true, true, true, true
     | true, true, true, true, true, true, true, true, true
     | true, true, true, true, true, true, true, true, true
     | true, true, true, true, true, true, true, true, true
     | true, true, true, true, true, true, true, true, true
     | true, true, true, true, true, true, true, true, true
     | true, true, true, true, true, true, true, true, true
     | true, true, true, true, true, true, true, true, true
     | true, true, true, true, true, true, true, true, true
     | true, true, true, true, true, true, true, true, true
     | true, true, true, true, true, true, true, true, true
     | true, true, true, true, true, true, true, true, true
     | true, true, true, true, true, true, true, true, true
     | true, true, true, true, true, true, true, true, true
     | true, true, true, true, true, true, true, true, true
     | true, true, true, true, true, true, true, true, true
     | true, true, true, true, true, true, true, true, true
     | true, true, true, true, true, true, true, true, true
     | true, true, true, true, true, true, true, true, true
     | true, true, true, true, true, true, true, true, true
     | true, true, true, true, true, true, true, true, true
     | true, true, true, true, true, true, true, true, true
     | true, true, true, true, true, true, true, true, true
     | true, true, true, true, true, true, true, true, true
     | true, true, true, true, true, true, true, true, true
     | true, true, true, true, true, true, true, true, true
     | true, true, true, true, true, true, true, true, true
     | true, true, true, true, true, true, true, true, true
     | true, true, true, true, true, true, true, true, true
     | true, true, true, true, true, true, true, true, true
     | true, true, true, true, true, true, true, true, true
     | true, true, true, true, true, true, true, true, true
     | true, true, true, true, true, true, true, true, true
     | true, true, true, true, true, true, true, true, true
     | true, true, true, true, true, true, true, true, true
     | true, true, true, true, true, true, true, true, true
     | true, true, true, true, true, true, true, true, true
     | true, true, true, true, true, true, true, true, true
     | true, true, true, true, true, true, true, true, true
     | true, true, true, true, true, true, true, true, true
     | true, true, true, true, true, true, true, true, true
     | true, true, true, true, true, true, true, true, true
     | true, true, true, true, true, true, true, true, true
     | true, true, true, true, true, true, true, true, true
     | true, true, true, true, true, true, true, true, true
     | true, true, true, true, true, true, true, true, true
     | true, true, true, true, true, true, true, true, true
     | true, true, true, true, true, true, true, true, true
     | true, true, true, true, true, true, true, true, true
     | true, true, true, true, true, true, true, true, true
     | true, true, true, true, true, true, true, true, true
     | true, true, true, true, true, true, true, true, true
     | true, true, true, true, true, true, true, true, true
     | true, true, true, true, true, true, true, true, true
     | true, true, true, true, true, true, true, true, true
     | true, true, true, true, true, true, true, true, true
     | true, true, true, true, true, true, true, true, true
     | true, true, true, true, true, true, true, true, true
     | true, true, true, true, true, true, true, true, true
     | true, true, true, true, true, true, true, true, true
     | true, true, true, true, true, true, true, true, true
     | true, true, true, true, true, true, true, true, true
     | true, true, true, true, true, true, true, true, true
     | true, true, true, true, true, true, true, true, true
     | true, true, true, true, true, true, true, true, true
     | true, true, true, true, true, true, true, true, true
     | true, true, true, true, true, true, true, true, true
     | true, true, true, true, true, true, true, true, true
     | true, true, true, true, true, true, true, true, true
     | true, true, true, true, true, true, true, true, true
     | true, true, true, true, true, true, true, true, true
     | true, true, true, true, true, true, true, true, true
     | true, true, true, true, true, true, true, true, true
     | true, true, true, true, true, true, true, true, true
     | true, true, true, true, true, true, true, true, true
     | true, true, true, true, true, true, true, true, true
     | true, true, true, true, true, true, true, true, true
     | true, true, true, true, true, true, true, true, true
     | true, true, true, true, true, true, true, true, true
     | true, true, true, true, true, true, true, true, true
     | true, true, true, true, true, true, true, true, true
     | true, true, true, true, true, true, true, true, true
     | true, true, true, true, true, true, true, true, true
     | true, true, true, true, true, true, true, true, true
     | true, true, true, true, true, true, true, true, true
     | true, true, true, true, true, true, true, true, true
     | true, true, true, true, true, true, true, true, true
     | true, true, true, true, true, true, true, true, true
     | true, true, true, true, true, true, true, true, true
     | true, true, true, true, true, true, true, true, true
     | true, true, true, true, true, true, true, true, true
     | true, true, true, true, true, true, true, true, true
     | true, true, true, true, true, true, true, true, true
     | true, true, true, true, true, true, true, true, true
     | true, true, true, true, true, true, true, true, true
     | true, true, true, true, true, true, true, true, true
     | true, true, true, true, true, true, true, true, true
     | true, true, true, true, true, true, true, true, true
     | true, true, true, true, true, true, true, true, true
     | true, true, true, true, true, true, true, true, true
     | true, true, true, true, true, true, true, true, true
     | true, true, true, true, true, true, true, true, true
     | true, true, true, true, true, true, true, true, true
     | true, true, true, true, true, true, true, true, true
     | true, true, true, true, true, true, true, true, true
     | true, true, true, true, true, true, true, true, true
     | true, true, true, true, true, true, true, true, true
     | true, true, true, true, true, true, true, true, true
     | true, true, true, true, true, true, true, true, true
     | true, true, true, true, true, true, true, true, true
     | true, true, true, true, true, true, true, true, true
     | true, true, true, true, true, true, true, true, true
     | true, true, true, true, true, true, true, true, true
     | true, true, true, true, true, true, true, true, true
     | true, true, true, true, true, true, true, true, true
     | true, true, true, true, true, true, true, true, true
     | true, true, true, true, true, true, true, true, true
     | true, true, true, true, true, true, true, true, true
     | true, true, true, true, true, true, true, true, true
     | true, true, true, true, true, true, true, true, true
     | true, true, true, true, true, true, true, true, true
     | true, true, true, true, true, true, true, true, true
     | true, true, true, true, true, true, true, true, true
     | true, true, true, true, true, true, true, true, true
     | true, true, true, true, true, true, true, true, true
     | true, true, true, true, true, true, true, true, true
     | true, true, true, true, true, true, true, true, true
     | true, true, true, true, true, true, true, true, true
     | true, true, true, true, true, true, true, true, true
     | true, true, true, true, true, true, true, true, true
     | true, true, true, true, true, true, true, true, true
     | true, true, true, true, true, true, true, true, true
     | true, true, true, true, true, true, true, true, true
     | true, true, true, true, true, true, true, true, true
     | true, true, true, true, true, true, true, true, true
     | true, true, true, true, true, true, true, true, true
     | true, true, true, true, true, true, true, true, true
     | true, true, true, true, true, true, true, true, true
     | true, true, true, true, true, true, true, true, true
     | true, true, true, true, true, true, true, true, true
     | true, true, true, true, true, true, true, true, true
     | true, true, true, true, true, true, true, true, true
     | true, true, true, true, true, true, true, true, true
     | true, true, true, true, true, true, true, true, true
     | true, true, true, true, true, true, true, true, true
     | true, true, true, true, true, true, true, true, true
     | true, true, true, true, true, true, true, true, true
     | true, true, true, true, true, true, true, true, true
     | true, true, true, true, true, true, true, true, true
     | true, true, true, true, true, true, true, true, true
     | true, true, true, true, true, true, true, true, true
     | true, true, true, true, true, true, true, true, true
     | true, true, true, true, true, true, true, true, true
     | true, true, true, true, true, true, true, true, true
     | true, true, true, true, true, true, true, true, true
     | true, true, true, true, true, true, true, true, true
     | true, true, true, true, true, true, true, true, true
     | true, true, true, true, true, true, true, true, true
     | true, true, true, true, true, true, true, true, true
     | true, true, true, true, true, true, true, true, true
     | true, true, true, true, true, true, true, true, true
     | true, true, true, true, true, true, true, true, true
     | true, true, true, true, true, true, true, true, true
     | true, true, true, true, true, true, true, true, true
     | true, true, true, true, true, true, true, true, true
     | true, true, true, true, true, true, true, true, true
     | true, true, true, true, true, true, true, true, true
     | true, true, true, true, true, true, true, true, true
     | true, true, true, true, true, true, true, true, true
     | true, true, true, true, true, true, true, true, true
     | true, true, true, true, true, true, true, true, true
     | true, true, true, true, true, true, true, true, true
     | true, true, true, true, true, true, true, true, true
     | true, true, true, true, true, true, true, true, true
     | true, true, true, true, true, true, true, true, true
     | true, true, true, true, true, true, true, true, true
     | true, true, true, true, true, true, true, true, true
     | true, true, true, true, true, true, true, true, true
     | true, true, true, true, true, true, true, true, true
     | true, true, true, true, true, true, true, true, true
     | true, true, true, true, true, true, true, true, true
     | true, true, true, true, true, true, true, true, true
     | true, true, true, true, true, true, true, true, true |]);
nPL = 100;
pl_u = [1, 1, 1, 32, 1, 34, 1, 2, 2, 2, 37, 2, 39, 2, 3, 3, 3, 42, 3, 44, 3, 4, 4, 4, 47, 4, 49, 4, 5, 5, 5, 52, 5, 54, 5, 6, 6, 6, 57, 6, 59, 6, 7, 7, 7, 62, 7, 64, 7, 8, 8, 8, 67, 8, 69, 8, 9, 9, 10, 10, 11, 11, 12, 12, 13, 13, 14, 14, 15, 15, 16, 16, 17, 17, 17, 18, 19, 19, 19, 20, 21, 21, 21, 22, 23, 23, 23, 24, 25, 25, 25, 26, 27, 27, 27, 28, 29, 29, 29, 30];
pl_v = [31, 32, 32, 33, 31, 35, 34, 36, 37, 37, 38, 36, 40, 39, 41, 42, 42, 43, 41, 45, 44, 46, 47, 47, 48, 46, 50, 49, 51, 52, 52, 53, 51, 55, 54, 56, 57, 57, 58, 56, 60, 59, 61, 62, 62, 63, 61, 65, 64, 66, 67, 67, 68, 66, 70, 69, 71, 71, 72, 72, 73, 73, 74, 74, 75, 75, 76, 76, 77, 77, 78, 78, 79, 80, 79, 81, 82, 83, 82, 84, 85, 86, 85, 87, 88, 89, 88, 90, 91, 92, 91, 93, 94, 95, 94, 96, 97, 98, 97, 99];
pl_rel = [3, 3, 3, 3, 3, 3, 3, 3, 3, 3, 3, 3, 3, 3, 3, 3, 3, 3, 3, 3, 3, 3, 3, 3, 3, 3, 3, 3, 3, 3, 3, 3, 3, 3, 3, 3, 3, 3, 3, 3, 3, 3, 3, 3, 3, 3, 3, 3, 3, 3, 3, 3, 3, 3, 3, 3, 2, 3, 2, 3, 2, 3, 2, 3, 2, 3, 2, 3, 2, 3, 2, 3, 2, 3, 3, 3, 2, 3, 3, 3, 2, 3, 3, 3, 2, 3, 3, 3, 2, 3, 3, 3, 2, 3, 3, 3, 2, 3, 3, 3];
pl_owner = [1, 1, 1, 1, 1, 1, 1, 2, 2, 2, 2, 2, 2, 2, 3, 3, 3, 3, 3, 3, 3, 4, 4, 4, 4, 4, 4, 4, 5, 5, 5, 5, 5, 5, 5, 6, 6, 6, 6, 6, 6, 6, 7, 7, 7, 7, 7, 7, 7, 8, 8, 8, 8, 8, 8, 8, 9, 9, 10, 10, 11, 11, 12, 12, 13, 13, 14, 14, 15, 15, 16, 16, 17, 17, 17, 18, 19, 19, 19, 20, 21, 21, 21, 22, 23, 23, 23, 24, 25, 25, 25, 26, 27, 27, 27, 28, 29, 29, 29, 30];
pl_guard = array2d(1..100, 1..9,
  [| false, false, true, false, false, false, false, false, false
     | false, false, false, true, false, false, false, false, false
     | false, false, false, false, true, false, false, false, false
     | false, false, false, false, true, false, false, false, false
     | false, false, false, false, false, false, true, false, false
     | false, false, false, false, false, false, true, false, false
     | false, false, false, false, false, false, true, false, false
     | false, false, true, false, false, false, false, false, false
     | false, false, false, true, false, false, false, false, false
     | false, false, false, false, true, false, false, false, false
     | false, false, false, false, true, false, false, false, false
     | false, false, false, false, false, false, true, false, false
     | false, false, false, false, false, false, true, false, false
     | false, false, false, false, false, false, true, false, false
     | false, false, true, false, false, false, false, false, false
     | false, false, false, true, false, false, false, false, false
     | false, false, false, false, true, false, false, false, false
     | false, false, false, false, true, false, false, false, false
     | false, false, false, false, false, false, true, false, false
     | false, false, false, false, false, false, true, false, false
     | false, false, false, false, false, false, true, false, false
     | false, false, true, false, false, false, false, false, false
     | false, false, false, true, false, false, false, false, false
     | false, false, false, false, true, false, false, false, false
     | false, false, false, false, true, false, false, false, false
     | false, false, false, false, false, false, true, false, false
     | false, false, false, false, false, false, true, false, false
     | false, false, false, false, false, false, true, false, false
     | false, false, true, false, false, false, false, false, false
     | false, false, false, true, false, false, false, false, false
     | false, false, false, false, true, false, false, false, false
     | false, false, false, false, true, false, false, false, false
     | false, false, false, false, false, false, true, false, false
     | false, false, false, false, false, false, true, false, false
     | false, false, false, false, false, false, true, false, false
     | false, false, true, false, false, false, false, false, false
     | false, false, false, true, false, false, false, false, false
     | false, false, false, false, true, false, false, false, false
     | false, false, false, false, true, false, false, false, false
     | false, false, false, false, false, false, true, false, false
     | false, false, false, false, false, false, true, false, false
     | false, false, false, false, false, false, true, false, false
     | false, false, true, false, false, false, false, false, false
     | false, false, false, true, false, false, false, false, false
     | false, false, false, false, true, false, false, false, false
     | false, false, false, false, true, false, false, false, false
     | false, false, false, false, false, false, true, false, false
     | false, false, false, false, false, false, true, false, false
     | false, false, false, false, false, false, true, false, false
     | false, false, true, false, false, false, false, false, false
     | false, false, false, true, false, false, false, false, false
     | false, false, false, false, true, false, false, false, false
     | false, false, false, false, true, false, false, false, false
     | false, false, false, false, false, false, true, false, false
     | false, false, false, false, false, false, true, false, false
     | false, false, false, false, false, false, true, false, false
     | false, true, false, false, false, false, false, false, false
     | false, false, false, false, false, false, false, false, true
     | false, true, false, false, false, false, false, false, false
     | false, false, false, false, false, false, false, false, true
     | false, true, false, false, false, false, false, false, false
     | false, false, false, false, false, false, false, false, true
     | false, true, false, false, false, false, false, false, false
     | false, false, false, false, false, false, false, false, true
     | false, true, false, false, false, false, false, false, false
     | false, false, false, false, false, false, false, false, true
     | false, true, false, false, false, false, false, false, false
     | false, false, false, false, false, false, false, false, true
     | false, true, false, false, false, false, false, false, false
     | false, false, false, false, false, false, false, false, true
     | false, true, false, false, false, false, false, false, false
     | false, false, false, false, false, false, false, false, true
     | false, true, false, false, false, false, false, false, false
     | false, false, false, false, false, false, false, true, false
     | false, false, false, false, false, false, false, false, true
     | false, false, false, false, false, false, false, true, false
     | false, true, false, false, false, false, false, false, false
     | false, false, false, false, false, false, false, true, false
     | false, false, false, false, false, false, false, false, true
     | false, false, false, false, false, false, false, true, false
     | false, true, false, false, false, false, false, false, false
     | false, false, false, false, false, false, false, true, false
     | false, false, false, false, false, false, false, false, true
     | false, false, false, false, false, false, false, true, false
     | false, true, false, false, false, false, false, false, false
     | false, false, false, false, false, false, false, true, false
     | false, false, false, false, false, false, false, false, true
     | false, false, false, false, false, false, false, true, false
     | false, true, false, false, false, false, false, false, false
     | false, false, false, false, false, false, false, true, false
     | false, false, false, false, false, false, false, false, true
     | false, false, false, false, false, false, false, true, false
     | false, true, false, false, false, false, false, false, false
     | false, false, false, false, false, false, false, true, false
     | false, false, false, false, false, false, false, false, true
     | false, false, false, false, false, false, false, true, false
     | false, true, false, false, false, false, false, false, false
     | false, false, false, false, false, false, false, true, false
     | false, false, false, false, false, false, false, false, true
     | false, false, false, false, false, false, false, true, false |]);

% ---- TDMA communication ----
nCh = 0;
ch_src = [1]; ch_dst = [1]; ch_msgsize = [0]; ch_app = [1];
ch_block = [1]; ch_send = [1]; ch_rec = [1]; ch_slots_needed = [1];
ch_direct_tok = [0];
ch_rounds = array2d(1..1, 0..8, [0, 0, 0, 0, 0, 0, 0, 0, 0]);
tdma_slots = 8;
tdma_cycle_len = 1;
data_per_slot = 32;
max_buf = 4;
ni_capacity = 100000;
nSep = 0;  sep_a = [1];  sep_b = [1];
comm_sil_mode = 0;
comm_actor = [false, false, false, false, false, false, false, false, false, false, false, false, false, false, false, false, false, false, false, false, false, false, false, false, false, false, false, false, false, false, false, false, false, false, false, false, false, false, false, false, false, false, false, false, false, false, false, false, false, false, false, false, false, false, false, false, false, false, false, false, false, false, false, false, false, false, false, false, false, false, false, false, false, false, false, false, false, false, false, false, false, false, false, false, false, false, false, false, false, false, false, false, false, false, false, false, false, false, false];
