% Generated by SafeDSE build_dzn.py -- do not edit by hand.
% applications : g
% platform     : synthetic_3type
% period mode  : global
% fault model  : random_hw
% cost profile : myklebust2015  [100, 113, 225, 518, 906]

% ---- applications ----
nApps = 1;
n = 104;
app = [1, 1, 1, 1, 1, 1, 1, 1, 1, 1, 1, 1, 1, 1, 1, 1, 1, 1, 1, 1, 1, 1, 1, 1, 1, 1, 1, 1, 1, 1, 1, 1, 1, 1, 1, 1, 1, 1, 1, 1, 1, 1, 1, 1, 1, 1, 1, 1, 1, 1, 1, 1, 1, 1, 1, 1, 1, 1, 1, 1, 1, 1, 1, 1, 1, 1, 1, 1, 1, 1, 1, 1, 1, 1, 1, 1, 1, 1, 1, 1, 1, 1, 1, 1, 1, 1, 1, 1, 1, 1, 1, 1, 1, 1, 1, 1, 1, 1, 1, 1, 1, 1, 1, 1];
nParents = 104;
parent = [1, 2, 3, 4, 5, 6, 7, 8, 9, 10, 11, 12, 13, 14, 15, 16, 17, 18, 19, 20, 21, 22, 23, 24, 25, 26, 27, 28, 29, 30, 31, 32, 33, 34, 35, 36, 37, 38, 39, 40, 41, 42, 43, 44, 45, 46, 47, 48, 49, 50, 51, 52, 53, 54, 55, 56, 57, 58, 59, 60, 61, 62, 63, 64, 65, 66, 67, 68, 69, 70, 71, 72, 73, 74, 75, 76, 77, 78, 79, 80, 81, 82, 83, 84, 85, 86, 87, 88, 89, 90, 91, 92, 93, 94, 95, 96, 97, 98, 99, 100, 101, 102, 103, 104];
copy_index = [0, 0, 0, 0, 0, 0, 0, 0, 0, 0, 0, 0, 0, 0, 0, 0, 0, 0, 0, 0, 0, 0, 0, 0, 0, 0, 0, 0, 0, 0, 0, 0, 0, 0, 0, 0, 0, 0, 0, 0, 0, 0, 0, 0, 0, 0, 0, 0, 0, 0, 0, 0, 0, 0, 0, 0, 0, 0, 0, 0, 0, 0, 0, 0, 0, 0, 0, 0, 0, 0, 0, 0, 0, 0, 0, 0, 0, 0, 0, 0, 0, 0, 0, 0, 0, 0, 0, 0, 0, 0, 0, 0, 0, 0, 0, 0, 0, 0, 0, 0, 0, 0, 0, 0];
node_name = ["g.a0", "g.a1", "g.a2", "g.a3", "g.a4", "g.a5", "g.a6", "g.a7", "g.a8", "g.a9", "g.a10", "g.a11", "g.a12", "g.a13", "g.a14", "g.a15", "g.a16", "g.a17", "g.a18", "g.a19", "g.a20", "g.a21", "g.a22", "g.a23", "g.a24", "g.a25", "g.a26", "g.a27", "g.a28", "g.a29", "g.a30", "g.a31", "g.a0~0", "g.a0~1", "g.a0~2", "g.a0~3", "g.a0~4", "g.a1~0", "g.a1~1", "g.a1~2", "g.a1~3", "g.a1~4", "g.a2~0", "g.a2~1", "g.a2~2", "g.a2~3", "g.a2~4", "g.a3~0", "g.a3~1", "g.a3~2", "g.a3~3", "g.a3~4", "g.a4~0", "g.a4~1", "g.a4~2", "g.a4~3", "g.a4~4", "g.a5~0", "g.a5~1", "g.a5~2", "g.a5~3", "g.a5~4", "g.a6~0", "g.a6~1", "g.a6~2", "g.a6~3", "g.a6~4", "g.a7~0", "g.a7~1", "g.a7~2", "g.a7~3", "g.a7~4", "g.a8~0", "g.a9~0", "g.a10~0", "g.a11~0", "g.a12~0", "g.a13~0", "g.a14~0", "g.a15~0", "g.a16~0", "g.a16~1", "g.a17~0", "g.a18~0", "g.a18~1", "g.a19~0", "g.a20~0", "g.a20~1", "g.a21~0", "g.a22~0", "g.a22~1", "g.a23~0", "g.a24~0", "g.a24~1", "g.a25~0", "g.a26~0", "g.a26~1", "g.a27~0", "g.a28~0", "g.a28~1", "g.a29~0", "g.a30~0", "g.a30~1", "g.a31~0"];
parent_name = ["g.a0", "g.a1", "g.a2", "g.a3", "g.a4", "g.a5", "g.a6", "g.a7", "g.a8", "g.a9", "g.a10", "g.a11", "g.a12", "g.a13", "g.a14", "g.a15", "g.a16", "g.a17", "g.a18", "g.a19", "g.a20", "g.a21", "g.a22", "g.a23", "g.a24", "g.a25", "g.a26", "g.a27", "g.a28", "g.a29", "g.a30", "g.a31", "g.a0~0", "g.a0~1", "g.a0~2", "g.a0~3", "g.a0~4", "g.a1~0", "g.a1~1", "g.a1~2", "g.a1~3", "g.a1~4", "g.a2~0", "g.a2~1", "g.a2~2", "g.a2~3", "g.a2~4", "g.a3~0", "g.a3~1", "g.a3~2", "g.a3~3", "g.a3~4", "g.a4~0", "g.a4~1", "g.a4~2", "g.a4~3", "g.a4~4", "g.a5~0", "g.a5~1", "g.a5~2", "g.a5~3", "g.a5~4", "g.a6~0", "g.a6~1", "g.a6~2", "g.a6~3", "g.a6~4", "g.a7~0", "g.a7~1", "g.a7~2", "g.a7~3", "g.a7~4", "g.a8~0", "g.a9~0", "g.a10~0", "g.a11~0", "g.a12~0", "g.a13~0", "g.a14~0", "g.a15~0", "g.a16~0", "g.a16~1", "g.a17~0", "g.a18~0", "g.a18~1", "g.a19~0", "g.a20~0", "g.a20~1", "g.a21~0", "g.a22~0", "g.a22~1", "g.a23~0", "g.a24~0", "g.a24~1", "g.a25~0", "g.a26~0", "g.a26~1", "g.a27~0", "g.a28~0", "g.a28~1", "g.a29~0", "g.a30~0", "g.a30~1", "g.a31~0"];
tok = array2d(1..104, 1..104,
  [| 1, 0, -1, -1, -1, -1, -1, -1, -1, -1, -1, -1, -1, -1, -1, -1, -1, -1, -1, -1, -1, -1, -1, -1, -1, -1, -1, -1, -1, -1, -1, -1, 0, 0, 0, -1, -1, 0, 0, 0, 0, 0, -1, -1, -1, -1, -1, -1, -1, -1, -1, -1, -1, -1, -1, -1, -1, -1, -1, -1, -1, -1, -1, -1, -1, -1, -1, -1, -1, -1, -1, -1, -1, -1, -1, -1, -1, -1, -1, -1, -1, -1, -1, -1, -1, -1, -1, -1, -1, -1, -1, -1, -1, -1, -1, -1, -1, -1, -1, -1, -1, -1, -1, -1
       | -1, 1, -1, -1, -1, -1, -1, 1, -1, -1, -1, -1, -1, -1, -1, -1, -1, -1, -1, -1, -1, -1, -1, -1, -1, -1, -1, -1, -1, -1, -1, -1, -1, -1, -1, -1, -1, 0, 0, 0, -1, -1, -1, -1, -1, -1, -1, -1, -1, -1, -1, -1, -1, -1, -1, -1, -1, -1, -1, -1, -1, -1, -1, -1, -1, -1, -1, 1, 1, 1, 1, 1, -1, -1, -1, -1, -1, -1, -1, -1, -1, -1, -1, -1, -1, -1, -1, -1, -1, -1, -1, -1, -1, -1, -1, -1, -1, -1, -1, -1, -1, -1, -1, -1
       | 0, -1, 1, -1, -1, -1, -1, -1, -1, -1, -1, -1, -1, -1, -1, -1, -1, -1, -1, -1, -1, -1, -1, -1, -1, -1, -1, -1, -1, -1, -1, -1, 0, 0, 0, 0, 0, -1, -1, -1, -1, -1, 0, 0, 0, -1, -1, -1, -1, -1, -1, -1, -1, -1, -1, -1, -1, -1, -1, -1, -1, -1, -1, -1, -1, -1, -1, -1, -1, -1, -1, -1, -1, -1, -1, -1, -1, -1, -1, -1, -1, -1, -1, -1, -1, -1, -1, -1, -1, -1, -1, -1, -1, -1, -1, -1, -1, -1, -1, -1, -1, -1, -1, -1
       | -1, -1, 0, 1, -1, -1, 1, -1, -1, -1, -1, -1, -1, -1, -1, -1, -1, -1, -1, -1, -1, -1, -1, -1, -1, -1, -1, -1, -1, -1, -1, -1, -1, -1, -1, -1, -1, -1, -1, -1, -1, -1, 0, 0, 0, 0, 0, 0, 0, 0, -1, -1, -1, -1, -1, -1, -1, -1, -1, -1, -1, -1, 1, 1, 1, 1, 1, -1, -1, -1, -1, -1, -1, -1, -1, -1, -1, -1, -1, -1, -1, -1, -1, -1, -1, -1, -1, -1, -1, -1, -1, -1, -1, -1, -1, -1, -1, -1, -1, -1, -1, -1, -1, -1
       | -1, -1, -1, 0, 1, -1, -1, -1, -1, -1, -1, -1, -1, -1, -1, -1, -1, -1, -1, -1, -1, -1, -1, -1, -1, -1, -1, -1, -1, -1, -1, -1, -1, -1, -1, -1, -1, -1, -1, -1, -1, -1, -1, -1, -1, -1, -1, 0, 0, 0, 0, 0, 0, 0, 0, -1, -1, -1, -1, -1, -1, -1, -1, -1, -1, -1, -1, -1, -1, -1, -1, -1, -1, -1, -1, -1, -1, -1, -1, -1, -1, -1, -1, -1, -1, -1, -1, -1, -1, -1, -1, -1, -1, -1, -1, -1, -1, -1, -1, -1, -1, -1, -1, -1
       | -1, -1, -1, -1, 0, 1, -1, -1, -1, -1, -1, -1, -1, -1, -1, -1, -1, -1, -1, -1, -1, -1, -1, -1, -1, -1, -1, -1, -1, -1, -1, -1, -1, -1, -1, -1, -1, -1, -1, -1, -1, -1, -1, -1, -1, -1, -1, -1, -1, -1, -1, -1, 0, 0, 0, 0, 0, 0, 0, 0, -1, -1, -1, -1, -1, -1, -1, -1, -1, -1, -1, -1, -1, -1, -1, -1, -1, -1, -1, -1, -1, -1, -1, -1, -1, -1, -1, -1, -1, -1, -1, -1, -1, -1, -1, -1, -1, -1, -1, -1, -1, -1, -1, -1
       | -1, -1, -1, -1, -1, -1, 1, -1, -1, -1, -1, -1, -1, 1, -1, -1, -1, -1, -1, -1, -1, -1, -1, -1, -1, -1, -1, -1, -1, -1, -1, -1, -1, -1, -1, -1, -1, -1, -1, -1, -1, -1, -1, -1, -1, -1, -1, -1, -1, -1, -1, -1, -1, -1, -1, -1, -1, -1, -1, -1, -1, -1, 0, 0, 0, -1, -1, -1, -1, -1, -1, -1, -1, -1, -1, -1, -1, 1, -1, -1, -1, -1, -1, -1, -1, -1, -1, -1, -1, -1, -1, -1, -1, -1, -1, -1, -1, -1, -1, -1, -1, -1, -1, -1
       | -1, -1, -1, -1, -1, -1, -1, 1, -1, -1, -1, -1, -1, -1, -1, -1, -1, -1, -1, -1, -1, -1, -1, -1, -1, -1, -1, -1, -1, 0, -1, -1, -1, -1, -1, -1, -1, -1, -1, -1, -1, -1, -1, -1, -1, -1, -1, -1, -1, -1, -1, -1, -1, -1, -1, -1, -1, -1, -1, -1, -1, -1, -1, -1, -1, -1, -1, 0, 0, 0, 1, 1, -1, -1, -1, -1, -1, -1, -1, -1, -1, -1, -1, -1, -1, -1, -1, -1, -1, -1, -1, -1, -1, -1, -1, -1, -1, -1, -1, -1, 0, -1, -1, -1
       | -1, -1, -1, -1, -1, -1, 0, -1, 1, 1, 0, -1, -1, -1, -1, -1, -1, -1, -1, -1, -1, -1, -1, -1, -1, -1, -1, -1, -1, -1, -1, -1, -1, -1, -1, -1, -1, -1, -1, -1, -1, -1, -1, -1, -1, -1, -1, -1, -1, -1, -1, -1, -1, -1, -1, -1, -1, -1, -1, -1, -1, -1, 0, 0, 0, 0, 0, -1, -1, -1, -1, -1, 0, 1, 0, -1, -1, -1, -1, -1, -1, -1, -1, -1, -1, -1, -1, -1, -1, -1, -1, -1, -1, -1, -1, -1, -1, -1, -1, -1, -1, -1, -1, -1
       | -1, -1, -1, -1, -1, -1, -1, -1, -1, 1, -1, 0, 1, -1, -1, -1, -1, -1, -1, -1, -1, -1, -1, -1, -1, -1, -1, -1, -1, -1, -1, -1, -1, -1, -1, -1, -1, -1, -1, -1, -1, -1, -1, -1, -1, -1, -1, -1, -1, -1, -1, -1, -1, -1, -1, -1, -1, -1, -1, -1, -1, -1, -1, -1, -1, -1, -1, -1, -1, -1, -1, -1, -1, 0, -1, 0, 1, -1, -1, -1, -1, -1, -1, -1, -1, -1, -1, -1, -1, -1, -1, -1, -1, -1, -1, -1, -1, -1, -1, -1, -1, -1, -1, -1
       | -1, -1, -1, -1, -1, -1, -1, 0, -1, -1, 1, -1, -1, -1, 0, -1, -1, -1, 0, -1, 0, -1, -1, -1, -1, -1, -1, -1, -1, -1, -1, -1, -1, -1, -1, -1, -1, -1, -1, -1, -1, -1, -1, -1, -1, -1, -1, -1, -1, -1, -1, -1, -1, -1, -1, -1, -1, -1, -1, -1, -1, -1, -1, -1, -1, -1, -1, 0, 0, 0, 0, 0, -1, -1, 0, -1, -1, -1, 0, -1, -1, -1, -1, 0, 0, -1, 0, 0, -1, -1, -1, -1, -1, -1, -1, -1, -1, -1, -1, -1, -1, -1, -1, -1
       | -1, -1, -1, -1, -1, -1, -1, -1, -1, -1, -1, 1, -1, -1, -1, -1, -1, -1, -1, -1, 0, -1, -1, -1, -1, -1, -1, -1, -1, -1, -1, -1, -1, -1, -1, -1, -1, -1, -1, -1, -1, -1, -1, -1, -1, -1, -1, -1, -1, -1, -1, -1, -1, -1, -1, -1, -1, -1, -1, -1, -1, -1, -1, -1, -1, -1, -1, -1, -1, -1, -1, -1, -1, -1, -1, 0, -1, -1, -1, -1, -1, -1, -1, -1, -1, -1, 0, 0, -1, -1, -1, -1, -1, -1, -1, -1, -1, -1, -1, -1, -1, -1, -1, -1
       | -1, -1, -1, -1, -1, -1, -1, -1, -1, -1, -1, -1, 1, -1, -1, -1, -1, 0, -1, -1, -1, -1, -1, 1, -1, -1, -1, 0, -1, -1, -1, -1, -1, -1, -1, -1, -1, -1, -1, -1, -1, -1, -1, -1, -1, -1, -1, -1, -1, -1, -1, -1, -1, -1, -1, -1, -1, -1, -1, -1, -1, -1, -1, -1, -1, -1, -1, -1, -1, -1, -1, -1, -1, -1, -1, -1, 0, -1, -1, -1, -1, -1, 0, -1, -1, -1, -1, -1, -1, -1, -1, 1, -1, -1, -1, -1, -1, 0, -1, -1, -1, -1, -1, -1
       | -1, -1, -1, -1, -1, -1, -1, -1, -1, -1, -1, -1, -1, 1, -1, -1, -1, -1, -1, -1, -1, -1, 0, 0, -1, -1, -1, -1, -1, -1, -1, -1, -1, -1, -1, -1, -1, -1, -1, -1, -1, -1, -1, -1, -1, -1, -1, -1, -1, -1, -1, -1, -1, -1, -1, -1, -1, -1, -1, -1, -1, -1, -1, -1, -1, -1, -1, -1, -1, -1, -1, -1, -1, -1, -1, -1, -1, 0, -1, -1, -1, -1, -1, -1, -1, -1, -1, -1, -1, 0, 0, 0, -1, -1, -1, -1, -1, -1, -1, -1, -1, -1, -1, -1
       | -1, -1, -1, -1, -1, -1, -1, -1, -1, -1, -1, -1, -1, -1, 1, -1, -1, -1, -1, -1, -1, -1, -1, -1, -1, 0, -1, -1, -1, -1, -1, -1, -1, -1, -1, -1, -1, -1, -1, -1, -1, -1, -1, -1, -1, -1, -1, -1, -1, -1, -1, -1, -1, -1, -1, -1, -1, -1, -1, -1, -1, -1, -1, -1, -1, -1, -1, -1, -1, -1, -1, -1, -1, -1, -1, -1, -1, -1, 0, -1, -1, -1, -1, -1, -1, -1, -1, -1, -1, -1, -1, -1, -1, -1, 0, -1, -1, -1, -1, -1, -1, -1, -1, -1
       | -1, -1, -1, -1, -1, -1, -1, -1, -1, 0, -1, -1, -1, -1, -1, 1, -1, -1, -1, -1, -1, -1, -1, -1, -1, -1, -1, -1, -1, -1, -1, -1, -1, -1, -1, -1, -1, -1, -1, -1, -1, -1, -1, -1, -1, -1, -1, -1, -1, -1, -1, -1, -1, -1, -1, -1, -1, -1, -1, -1, -1, -1, -1, -1, -1, -1, -1, -1, -1, -1, -1, -1, -1, 0, -1, -1, -1, -1, -1, 0, -1, -1, -1, -1, -1, -1, -1, -1, -1, -1, -1, -1, -1, -1, -1, -1, -1, -1, -1, -1, -1, -1, -1, -1
       | -1, -1, -1, -1, -1, -1, -1, -1, 0, -1, -1, -1, -1, -1, -1, -1, 1, -1, -1, -1, -1, -1, -1, -1, -1, -1, -1, -1, -1, -1, -1, -1, -1, -1, -1, -1, -1, -1, -1, -1, -1, -1, -1, -1, -1, -1, -1, -1, -1, -1, -1, -1, -1, -1, -1, -1, -1, -1, -1, -1, -1, -1, -1, -1, -1, -1, -1, -1, -1, -1, -1, -1, 0, -1, -1, -1, -1, -1, -1, -1, 0, -1, -1, -1, -1, -1, -1, -1, -1, -1, -1, -1, -1, -1, -1, -1, -1, -1, -1, -1, -1, -1, -1, -1
       | -1, -1, -1, -1, -1, -1, -1, -1, -1, -1, -1, -1, -1, -1, -1, 0, -1, 1, -1, -1, -1, -1, -1, -1, -1, -1, -1, -1, -1, -1, -1, -1, -1, -1, -1, -1, -1, -1, -1, -1, -1, -1, -1, -1, -1, -1, -1, -1, -1, -1, -1, -1, -1, -1, -1, -1, -1, -1, -1, -1, -1, -1, -1, -1, -1, -1, -1, -1, -1, -1, -1, -1, -1, -1, -1, -1, -1, -1, -1, 0, -1, -1, -1, -1, -1, -1, -1, -1, -1, -1, -1, -1, -1, -1, -1, -1, -1, -1, -1, -1, -1, -1, -1, -1
       | -1, -1, -1, -1, -1, -1, -1, -1, -1, -1, -1, -1, -1, -1, -1, -1, -1, -1, 1, -1, -1, -1, -1, -1, -1, 0, -1, -1, -1, -1, 0, -1, -1, -1, -1, -1, -1, -1, -1, -1, -1, -1, -1, -1, -1, -1, -1, -1, -1, -1, -1, -1, -1, -1, -1, -1, -1, -1, -1, -1, -1, -1, -1, -1, -1, -1, -1, -1, -1, -1, -1, -1, -1, -1, -1, -1, -1, -1, -1, -1, -1, -1, -1, 0, -1, -1, -1, -1, -1, -1, -1, -1, -1, -1, 0, -1, -1, -1, -1, -1, -1, 0, 0, -1
       | -1, -1, -1, -1, -1, -1, -1, -1, -1, -1, -1, -1, -1, -1, -1, 1, -1, -1, -1, 1, -1, -1, -1, -1, -1, -1, -1, -1, -1, -1, -1, -1, -1, -1, -1, -1, -1, -1, -1, -1, -1, -1, -1, -1, -1, -1, -1, -1, -1, -1, -1, -1, -1, -1, -1, -1, -1, -1, -1, -1, -1, -1, -1, -1, -1, -1, -1, -1, -1, -1, -1, -1, -1, -1, -1, -1, -1, -1, -1, 1, -1, -1, -1, -1, -1, -1, -1, -1, -1, -1, -1, -1, -1, -1, -1, -1, -1, -1, -1, -1, -1, -1, -1, -1
       | -1, -1, -1, -1, -1, 1, -1, -1, -1, 2, -1, -1, -1, -1, -1, -1, -1, -1, -1, -1, 1, -1, -1, -1, -1, -1, -1, -1, -1, -1, -1, -1, -1, -1, -1, -1, -1, -1, -1, -1, -1, -1, -1, -1, -1, -1, -1, -1, -1, -1, -1, -1, -1, -1, -1, -1, -1, 1, 1, 1, 1, 1, -1, -1, -1, -1, -1, -1, -1, -1, -1, -1, -1, 2, -1, -1, -1, -1, -1, -1, -1, -1, -1, -1, -1, -1, 0, -1, -1, -1, -1, -1, -1, -1, -1, -1, -1, -1, -1, -1, -1, -1, -1, -1
       | -1, -1, -1, -1, -1, -1, -1, -1, -1, -1, -1, -1, -1, -1, -1, -1, -1, -1, -1, 0, -1, 1, -1, -1, -1, -1, -1, -1, 0, -1, -1, -1, -1, -1, -1, -1, -1, -1, -1, -1, -1, -1, -1, -1, -1, -1, -1, -1, -1, -1, -1, -1, -1, -1, -1, -1, -1, -1, -1, -1, -1, -1, -1, -1, -1, -1, -1, -1, -1, -1, -1, -1, -1, -1, -1, -1, -1, -1, -1, -1, -1, -1, -1, -1, -1, 0, -1, -1, -1, -1, -1, -1, -1, -1, -1, -1, -1, -1, 0, 0, -1, -1, -1, -1
       | -1, -1, -1, -1, -1, 0, -1, -1, -1, -1, -1, -1, -1, -1, -1, -1, -1, -1, -1, -1, -1, -1, 1, -1, -1, -1, 0, -1, -1, -1, -1, -1, -1, -1, -1, -1, -1, -1, -1, -1, -1, -1, -1, -1, -1, -1, -1, -1, -1, -1, -1, -1, -1, -1, -1, -1, -1, 0, 0, 0, 0, 0, -1, -1, -1, -1, -1, -1, -1, -1, -1, -1, -1, -1, -1, -1, -1, -1, -1, -1, -1, -1, -1, -1, -1, -1, -1, -1, -1, 0, -1, -1, -1, -1, -1, 0, 0, -1, -1, -1, -1, -1, -1, -1
       | -1, -1, -1, -1, -1, -1, -1, -1, -1, -1, -1, -1, -1, -1, -1, -1, -1, -1, -1, -1, -1, -1, -1, 1, -1, -1, -1, -1, -1, -1, -1, 0, -1, -1, -1, -1, -1, -1, -1, -1, -1, -1, -1, -1, -1, -1, -1, -1, -1, -1, -1, -1, -1, -1, -1, -1, -1, -1, -1, -1, -1, -1, -1, -1, -1, -1, -1, -1, -1, -1, -1, -1, -1, -1, -1, -1, -1, -1, -1, -1, -1, -1, -1, -1, -1, -1, -1, -1, -1, -1, -1, -1, -1, -1, -1, -1, -1, -1, -1, -1, -1, -1, -1, 0
       | -1, -1, -1, -1, -1, -1, -1, -1, -1, -1, -1, -1, -1, -1, -1, -1, 1, -1, -1, -1, -1, -1, -1, -1, 1, -1, -1, -1, 0, -1, -1, 1, -1, -1, -1, -1, -1, -1, -1, -1, -1, -1, -1, -1, -1, -1, -1, -1, -1, -1, -1, -1, -1, -1, -1, -1, -1, -1, -1, -1, -1, -1, -1, -1, -1, -1, -1, -1, -1, -1, -1, -1, -1, -1, -1, -1, -1, -1, -1, -1, 1, 1, -1, -1, -1, -1, -1, -1, -1, -1, -1, -1, 0, -1, -1, -1, -1, -1, 0, 0, -1, -1, -1, 1
       | -1, -1, -1, -1, -1, -1, -1, -1, -1, -1, -1, -1, -1, -1, -1, -1, -1, -1, -1, -1, -1, 1, -1, -1, -1, 1, -1, -1, -1, -1, -1, -1, -1, -1, -1, -1, -1, -1, -1, -1, -1, -1, -1, -1, -1, -1, -1, -1, -1, -1, -1, -1, -1, -1, -1, -1, -1, -1, -1, -1, -1, -1, -1, -1, -1, -1, -1, -1, -1, -1, -1, -1, -1, -1, -1, -1, -1, -1, -1, -1, -1, -1, -1, -1, -1, -1, -1, -1, 1, -1, -1, -1, -1, -1, -1, -1, -1, -1, -1, -1, -1, -1, -1, -1
       | -1, -1, -1, -1, -1, -1, -1, -1, -1, -1, -1, -1, -1, -1, -1, -1, 0, -1, -1, -1, -1, -1, -1, -1, -1, -1, 1, -1, -1, -1, -1, -1, -1, -1, -1, -1, -1, -1, -1, -1, -1, -1, -1, -1, -1, -1, -1, -1, -1, -1, -1, -1, -1, -1, -1, -1, -1, -1, -1, -1, -1, -1, -1, -1, -1, -1, -1, -1, -1, -1, -1, -1, -1, -1, -1, -1, -1, -1, -1, -1, 0, 0, -1, -1, -1, -1, -1, -1, -1, -1, -1, -1, -1, -1, -1, 0, -1, -1, -1, -1, -1, -1, -1, -1
       | -1, -1, -1, -1, 0, -1, -1, -1, -1, -1, -1, -1, -1, -1, -1, -1, -1, -1, -1, -1, -1, -1, -1, -1, -1, -1, -1, 1, -1, -1, -1, -1, -1, -1, -1, -1, -1, -1, -1, -1, -1, -1, -1, -1, -1, -1, -1, -1, -1, -1, -1, -1, 0, 0, 0, 0, 0, -1, -1, -1, -1, -1, -1, -1, -1, -1, -1, -1, -1, -1, -1, -1, -1, -1, -1, -1, -1, -1, -1, -1, -1, -1, -1, -1, -1, -1, -1, -1, -1, -1, -1, -1, -1, -1, -1, -1, -1, -1, -1, -1, -1, -1, -1, -1
       | -1, -1, -1, -1, -1, -1, -1, -1, -1, -1, -1, -1, -1, -1, -1, -1, -1, -1, 0, -1, -1, -1, -1, -1, -1, -1, -1, -1, 1, -1, -1, -1, -1, -1, -1, -1, -1, -1, -1, -1, -1, -1, -1, -1, -1, -1, -1, -1, -1, -1, -1, -1, -1, -1, -1, -1, -1, -1, -1, -1, -1, -1, -1, -1, -1, -1, -1, -1, -1, -1, -1, -1, -1, -1, -1, -1, -1, -1, -1, -1, -1, -1, -1, 0, 0, -1, -1, -1, -1, -1, -1, -1, -1, -1, -1, -1, -1, -1, 0, -1, -1, -1, -1, -1
       | -1, -1, -1, -1, -1, -1, -1, -1, -1, -1, -1, -1, -1, -1, -1, -1, -1, -1, -1, -1, 1, -1, -1, -1, -1, -1, -1, -1, -1, 1, -1, -1, -1, -1, -1, -1, -1, -1, -1, -1, -1, -1, -1, -1, -1, -1, -1, -1, -1, -1, -1, -1, -1, -1, -1, -1, -1, -1, -1, -1, -1, -1, -1, -1, -1, -1, -1, -1, -1, -1, -1, -1, -1, -1, -1, -1, -1, -1, -1, -1, -1, -1, -1, -1, -1, -1, 1, 1, -1, -1, -1, -1, -1, -1, -1, -1, -1, -1, -1, -1, -1, -1, -1, -1
       | -1, -1, -1, -1, -1, -1, -1, -1, -1, -1, -1, -1, -1, -1, -1, -1, -1, 1, -1, -1, -1, -1, -1, -1, -1, -1, 1, -1, -1, -1, 1, -1, -1, -1, -1, -1, -1, -1, -1, -1, -1, -1, -1, -1, -1, -1, -1, -1, -1, -1, -1, -1, -1, -1, -1, -1, -1, -1, -1, -1, -1, -1, -1, -1, -1, -1, -1, -1, -1, -1, -1, -1, -1, -1, -1, -1, -1, -1, -1, -1, -1, -1, 1, -1, -1, -1, -1, -1, -1, -1, -1, -1, -1, -1, -1, 1, 1, -1, -1, -1, -1, 0, -1, -1
       | -1, -1, -1, -1, -1, -1, -1, -1, 0, -1, -1, -1, -1, -1, -1, -1, -1, -1, -1, -1, -1, -1, -1, -1, 0, -1, -1, -1, -1, -1, -1, 1, -1, -1, -1, -1, -1, -1, -1, -1, -1, -1, -1, -1, -1, -1, -1, -1, -1, -1, -1, -1, -1, -1, -1, -1, -1, -1, -1, -1, -1, -1, -1, -1, -1, -1, -1, -1, -1, -1, -1, -1, 0, -1, -1, -1, -1, -1, -1, -1, -1, -1, -1, -1, -1, -1, -1, -1, -1, -1, -1, -1, 0, 0, -1, -1, -1, -1, -1, -1, -1, -1, -1, -1
       | 1, -1, -1, -1, -1, -1, -1, -1, -1, -1, -1, -1, -1, -1, -1, -1, -1, -1, -1, -1, -1, -1, -1, -1, -1, -1, -1, -1, -1, -1, -1, -1, 1, -1, -1, -1, -1, -1, -1, -1, -1, -1, -1, -1, -1, -1, -1, -1, -1, -1, -1, -1, -1, -1, -1, -1, -1, -1, -1, -1, -1, -1, -1, -1, -1, -1, -1, -1, -1, -1, -1, -1, -1, -1, -1, -1, -1, -1, -1, -1, -1, -1, -1, -1, -1, -1, -1, -1, -1, -1, -1, -1, -1, -1, -1, -1, -1, -1, -1, -1, -1, -1, -1, -1
       | 1, -1, -1, -1, -1, -1, -1, -1, -1, -1, -1, -1, -1, -1, -1, -1, -1, -1, -1, -1, -1, -1, -1, -1, -1, -1, -1, -1, -1, -1, -1, -1, -1, 1, 1, -1, -1, -1, -1, -1, -1, -1, -1, -1, -1, -1, -1, -1, -1, -1, -1, -1, -1, -1, -1, -1, -1, -1, -1, -1, -1, -1, -1, -1, -1, -1, -1, -1, -1, -1, -1, -1, -1, -1, -1, -1, -1, -1, -1, -1, -1, -1, -1, -1, -1, -1, -1, -1, -1, -1, -1, -1, -1, -1, -1, -1, -1, -1, -1, -1, -1, -1, -1, -1
       | -1, -1, -1, -1, -1, -1, -1, -1, -1, -1, -1, -1, -1, -1, -1, -1, -1, -1, -1, -1, -1, -1, -1, -1, -1, -1, -1, -1, -1, -1, -1, -1, -1, 1, 1, -1, -1, -1, -1, -1, -1, -1, -1, -1, -1, -1, -1, -1, -1, -1, -1, -1, -1, -1, -1, -1, -1, -1, -1, -1, -1, -1, -1, -1, -1, -1, -1, -1, -1, -1, -1, -1, -1, -1, -1, -1, -1, -1, -1, -1, -1, -1, -1, -1, -1, -1, -1, -1, -1, -1, -1, -1, -1, -1, -1, -1, -1, -1, -1, -1, -1, -1, -1, -1
       | 1, -1, -1, -1, -1, -1, -1, -1, -1, -1, -1, -1, -1, -1, -1, -1, -1, -1, -1, -1, -1, -1, -1, -1, -1, -1, -1, -1, -1, -1, -1, -1, -1, -1, -1, 1, 0, -1, -1, -1, -1, -1, -1, -1, -1, -1, -1, -1, -1, -1, -1, -1, -1, -1, -1, -1, -1, -1, -1, -1, -1, -1, -1, -1, -1, -1, -1, -1, -1, -1, -1, -1, -1, -1, -1, -1, -1, -1, -1, -1, -1, -1, -1, -1, -1, -1, -1, -1, -1, -1, -1, -1, -1, -1, -1, -1, -1, -1, -1, -1, -1, -1, -1, -1
       | -1, -1, -1, -1, -1, -1, -1, -1, -1, -1, -1, -1, -1, -1, -1, -1, -1, -1, -1, -1, -1, -1, -1, -1, -1, -1, -1, -1, -1, -1, -1, -1, -1, -1, -1, 1, 1, -1, -1, -1, -1, -1, -1, -1, -1, -1, -1, -1, -1, -1, -1, -1, -1, -1, -1, -1, -1, -1, -1, -1, -1, -1, -1, -1, -1, -1, -1, -1, -1, -1, -1, -1, -1, -1, -1, -1, -1, -1, -1, -1, -1, -1, -1, -1, -1, -1, -1, -1, -1, -1, -1, -1, -1, -1, -1, -1, -1, -1, -1, -1, -1, -1, -1, -1
       | -1, 1, -1, -1, -1, -1, -1, -1, -1, -1, -1, -1, -1, -1, -1, -1, -1, -1, -1, -1, -1, -1, -1, -1, -1, -1, -1, -1, -1, -1, -1, -1, -1, -1, -1, -1, -1, 1, -1, -1, -1, -1, -1, -1, -1, -1, -1, -1, -1, -1, -1, -1, -1, -1, -1, -1, -1, -1, -1, -1, -1, -1, -1, -1, -1, -1, -1, -1, -1, -1, -1, -1, -1, -1, -1, -1, -1, -1, -1, -1, -1, -1, -1, -1, -1, -1, -1, -1, -1, -1, -1, -1, -1, -1, -1, -1, -1, -1, -1, -1, -1, -1, -1, -1
       | -1, 1, -1, -1, -1, -1, -1, -1, -1, -1, -1, -1, -1, -1, -1, -1, -1, -1, -1, -1, -1, -1, -1, -1, -1, -1, -1, -1, -1, -1, -1, -1, -1, -1, -1, -1, -1, -1, 1, 1, -1, -1, -1, -1, -1, -1, -1, -1, -1, -1, -1, -1, -1, -1, -1, -1, -1, -1, -1, -1, -1, -1, -1, -1, -1, -1, -1, -1, -1, -1, -1, -1, -1, -1, -1, -1, -1, -1, -1, -1, -1, -1, -1, -1, -1, -1, -1, -1, -1, -1, -1, -1, -1, -1, -1, -1, -1, -1, -1, -1, -1, -1, -1, -1
       | -1, -1, -1, -1, -1, -1, -1, -1, -1, -1, -1, -1, -1, -1, -1, -1, -1, -1, -1, -1, -1, -1, -1, -1, -1, -1, -1, -1, -1, -1, -1, -1, -1, -1, -1, -1, -1, -1, 1, 1, -1, -1, -1, -1, -1, -1, -1, -1, -1, -1, -1, -1, -1, -1, -1, -1, -1, -1, -1, -1, -1, -1, -1, -1, -1, -1, -1, -1, -1, -1, -1, -1, -1, -1, -1, -1, -1, -1, -1, -1, -1, -1, -1, -1, -1, -1, -1, -1, -1, -1, -1, -1, -1, -1, -1, -1, -1, -1, -1, -1, -1, -1, -1, -1
       | -1, 1, -1, -1, -1, -1, -1, -1, -1, -1, -1, -1, -1, -1, -1, -1, -1, -1, -1, -1, -1, -1, -1, -1, -1, -1, -1, -1, -1, -1, -1, -1, -1, -1, -1, -1, -1, -1, -1, -1, 1, 0, -1, -1, -1, -1, -1, -1, -1, -1, -1, -1, -1, -1, -1, -1, -1, -1, -1, -1, -1, -1, -1, -1, -1, -1, -1, -1, -1, -1, -1, -1, -1, -1, -1, -1, -1, -1, -1, -1, -1, -1, -1, -1, -1, -1, -1, -1, -1, -1, -1, -1, -1, -1, -1, -1, -1, -1, -1, -1, -1, -1, -1, -1
       | -1, -1, -1, -1, -1, -1, -1, -1, -1, -1, -1, -1, -1, -1, -1, -1, -1, -1, -1, -1, -1, -1, -1, -1, -1, -1, -1, -1, -1, -1, -1, -1, -1, -1, -1, -1, -1, -1, -1, -1, 1, 1, -1, -1, -1, -1, -1, -1, -1, -1, -1, -1, -1, -1, -1, -1, -1, -1, -1, -1, -1, -1, -1, -1, -1, -1, -1, -1, -1, -1, -1, -1, -1, -1, -1, -1, -1, -1, -1, -1, -1, -1, -1, -1, -1, -1, -1, -1, -1, -1, -1, -1, -1, -1, -1, -1, -1, -1, -1, -1, -1, -1, -1, -1
       | -1, -1, 1, -1, -1, -1, -1, -1, -1, -1, -1, -1, -1, -1, -1, -1, -1, -1, -1, -1, -1, -1, -1, -1, -1, -1, -1, -1, -1, -1, -1, -1, -1, -1, -1, -1, -1, -1, -1, -1, -1, -1, 1, -1, -1, -1, -1, -1, -1, -1, -1, -1, -1, -1, -1, -1, -1, -1, -1, -1, -1, -1, -1, -1, -1, -1, -1, -1, -1, -1, -1, -1, -1, -1, -1, -1, -1, -1, -1, -1, -1, -1, -1, -1, -1, -1, -1, -1, -1, -1, -1, -1, -1, -1, -1, -1, -1, -1, -1, -1, -1, -1, -1, -1
       | -1, -1, 1, -1, -1, -1, -1, -1, -1, -1, -1, -1, -1, -1, -1, -1, -1, -1, -1, -1, -1, -1, -1, -1, -1, -1, -1, -1, -1, -1, -1, -1, -1, -1, -1, -1, -1, -1, -1, -1, -1, -1, -1, 1, 1, -1, -1, -1, -1, -1, -1, -1, -1, -1, -1, -1, -1, -1, -1, -1, -1, -1, -1, -1, -1, -1, -1, -1, -1, -1, -1, -1, -1, -1, -1, -1, -1, -1, -1, -1, -1, -1, -1, -1, -1, -1, -1, -1, -1, -1, -1, -1, -1, -1, -1, -1, -1, -1, -1, -1, -1, -1, -1, -1
       | -1, -1, -1, -1, -1, -1, -1, -1, -1, -1, -1, -1, -1, -1, -1, -1, -1, -1, -1, -1, -1, -1, -1, -1, -1, -1, -1, -1, -1, -1, -1, -1, -1, -1, -1, -1, -1, -1, -1, -1, -1, -1, -1, 1, 1, -1, -1, -1, -1, -1, -1, -1, -1, -1, -1, -1, -1, -1, -1, -1, -1, -1, -1, -1, -1, -1, -1, -1, -1, -1, -1, -1, -1, -1, -1, -1, -1, -1, -1, -1, -1, -1, -1, -1, -1, -1, -1, -1, -1, -1, -1, -1, -1, -1, -1, -1, -1, -1, -1, -1, -1, -1, -1, -1
       | -1, -1, 1, -1, -1, -1, -1, -1, -1, -1, -1, -1, -1, -1, -1, -1, -1, -1, -1, -1, -1, -1, -1, -1, -1, -1, -1, -1, -1, -1, -1, -1, -1, -1, -1, -1, -1, -1, -1, -1, -1, -1, -1, -1, -1, 1, 0, -1, -1, -1, -1, -1, -1, -1, -1, -1, -1, -1, -1, -1, -1, -1, -1, -1, -1, -1, -1, -1, -1, -1, -1, -1, -1, -1, -1, -1, -1, -1, -1, -1, -1, -1, -1, -1, -1, -1, -1, -1, -1, -1, -1, -1, -1, -1, -1, -1, -1, -1, -1, -1, -1, -1, -1, -1
       | -1, -1, -1, -1, -1, -1, -1, -1, -1, -1, -1, -1, -1, -1, -1, -1, -1, -1, -1, -1, -1, -1, -1, -1, -1, -1, -1, -1, -1, -1, -1, -1, -1, -1, -1, -1, -1, -1, -1, -1, -1, -1, -1, -1, -1, 1, 1, -1, -1, -1, -1, -1, -1, -1, -1, -1, -1, -1, -1, -1, -1, -1, -1, -1, -1, -1, -1, -1, -1, -1, -1, -1, -1, -1, -1, -1, -1, -1, -1, -1, -1, -1, -1, -1, -1, -1, -1, -1, -1, -1, -1, -1, -1, -1, -1, -1, -1, -1, -1, -1, -1, -1, -1, -1
       | -1, -1, -1, 1, -1, -1, -1, -1, -1, -1, -1, -1, -1, -1, -1, -1, -1, -1, -1, -1, -1, -1, -1, -1, -1, -1, -1, -1, -1, -1, -1, -1, -1, -1, -1, -1, -1, -1, -1, -1, -1, -1, -1, -1, -1, -1, -1, 1, -1, -1, -1, -1, -1, -1, -1, -1, -1, -1, -1, -1, -1, -1, -1, -1, -1, -1, -1, -1, -1, -1, -1, -1, -1, -1, -1, -1, -1, -1, -1, -1, -1, -1, -1, -1, -1, -1, -1, -1, -1, -1, -1, -1, -1, -1, -1, -1, -1, -1, -1, -1, -1, -1, -1, -1
       | -1, -1, -1, 1, -1, -1, -1, -1, -1, -1, -1, -1, -1, -1, -1, -1, -1, -1, -1, -1, -1, -1, -1, -1, -1, -1, -1, -1, -1, -1, -1, -1, -1, -1, -1, -1, -1, -1, -1, -1, -1, -1, -1, -1, -1, -1, -1, -1, 1, 1, -1, -1, -1, -1, -1, -1, -1, -1, -1, -1, -1, -1, -1, -1, -1, -1, -1, -1, -1, -1, -1, -1, -1, -1, -1, -1, -1, -1, -1, -1, -1, -1, -1, -1, -1, -1, -1, -1, -1, -1, -1, -1, -1, -1, -1, -1, -1, -1, -1, -1, -1, -1, -1, -1
       | -1, -1, -1, -1, -1, -1, -1, -1, -1, -1, -1, -1, -1, -1, -1, -1, -1, -1, -1, -1, -1, -1, -1, -1, -1, -1, -1, -1, -1, -1, -1, -1, -1, -1, -1, -1, -1, -1, -1, -1, -1, -1, -1, -1, -1, -1, -1, -1, 1, 1, -1, -1, -1, -1, -1, -1, -1, -1, -1, -1, -1, -1, -1, -1, -1, -1, -1, -1, -1, -1, -1, -1, -1, -1, -1, -1, -1, -1, -1, -1, -1, -1, -1, -1, -1, -1, -1, -1, -1, -1, -1, -1, -1, -1, -1, -1, -1, -1, -1, -1, -1, -1, -1, -1
       | -1, -1, -1, 1, -1, -1, -1, -1, -1, -1, -1, -1, -1, -1, -1, -1, -1, -1, -1, -1, -1, -1, -1, -1, -1, -1, -1, -1, -1, -1, -1, -1, -1, -1, -1, -1, -1, -1, -1, -1, -1, -1, -1, -1, -1, -1, -1, -1, -1, -1, 1, 0, -1, -1, -1, -1, -1, -1, -1, -1, -1, -1, -1, -1, -1, -1, -1, -1, -1, -1, -1, -1, -1, -1, -1, -1, -1, -1, -1, -1, -1, -1, -1, -1, -1, -1, -1, -1, -1, -1, -1, -1, -1, -1, -1, -1, -1, -1, -1, -1, -1, -1, -1, -1
       | -1, -1, -1, -1, -1, -1, -1, -1, -1, -1, -1, -1, -1, -1, -1, -1, -1, -1, -1, -1, -1, -1, -1, -1, -1, -1, -1, -1, -1, -1, -1, -1, -1, -1, -1, -1, -1, -1, -1, -1, -1, -1, -1, -1, -1, -1, -1, -1, -1, -1, 1, 1, -1, -1, -1, -1, -1, -1, -1, -1, -1, -1, -1, -1, -1, -1, -1, -1, -1, -1, -1, -1, -1, -1, -1, -1, -1, -1, -1, -1, -1, -1, -1, -1, -1, -1, -1, -1, -1, -1, -1, -1, -1, -1, -1, -1, -1, -1, -1, -1, -1, -1, -1, -1
       | -1, -1, -1, -1, 1, -1, -1, -1, -1, -1, -1, -1, -1, -1, -1, -1, -1, -1, -1, -1, -1, -1, -1, -1, -1, -1, -1, -1, -1, -1, -1, -1, -1, -1, -1, -1, -1, -1, -1, -1, -1, -1, -1, -1, -1, -1, -1, -1, -1, -1, -1, -1, 1, -1, -1, -1, -1, -1, -1, -1, -1, -1, -1, -1, -1, -1, -1, -1, -1, -1, -1, -1, -1, -1, -1, -1, -1, -1, -1, -1, -1, -1, -1, -1, -1, -1, -1, -1, -1, -1, -1, -1, -1, -1, -1, -1, -1, -1, -1, -1, -1, -1, -1, -1
       | -1, -1, -1, -1, 1, -1, -1, -1, -1, -1, -1, -1, -1, -1, -1, -1, -1, -1, -1, -1, -1, -1, -1, -1, -1, -1, -1, -1, -1, -1, -1, -1, -1, -1, -1, -1, -1, -1, -1, -1, -1, -1, -1, -1, -1, -1, -1, -1, -1, -1, -1, -1, -1, 1, 1, -1, -1, -1, -1, -1, -1, -1, -1, -1, -1, -1, -1, -1, -1, -1, -1, -1, -1, -1, -1, -1, -1, -1, -1, -1, -1, -1, -1, -1, -1, -1, -1, -1, -1, -1, -1, -1, -1, -1, -1, -1, -1, -1, -1, -1, -1, -1, -1, -1
       | -1, -1, -1, -1, -1, -1, -1, -1, -1, -1, -1, -1, -1, -1, -1, -1, -1, -1, -1, -1, -1, -1, -1, -1, -1, -1, -1, -1, -1, -1, -1, -1, -1, -1, -1, -1, -1, -1, -1, -1, -1, -1, -1, -1, -1, -1, -1, -1, -1, -1, -1, -1, -1, 1, 1, -1, -1, -1, -1, -1, -1, -1, -1, -1, -1, -1, -1, -1, -1, -1, -1, -1, -1, -1, -1, -1, -1, -1, -1, -1, -1, -1, -1, -1, -1, -1, -1, -1, -1, -1, -1, -1, -1, -1, -1, -1, -1, -1, -1, -1, -1, -1, -1, -1
       | -1, -1, -1, -1, 1, -1, -1, -1, -1, -1, -1, -1, -1, -1, -1, -1, -1, -1, -1, -1, -1, -1, -1, -1, -1, -1, -1, -1, -1, -1, -1, -1, -1, -1, -1, -1, -1, -1, -1, -1, -1, -1, -1, -1, -1, -1, -1, -1, -1, -1, -1, -1, -1, -1, -1, 1, 0, -1, -1, -1, -1, -1, -1, -1, -1, -1, -1, -1, -1, -1, -1, -1, -1, -1, -1, -1, -1, -1, -1, -1, -1, -1, -1, -1, -1, -1, -1, -1, -1, -1, -1, -1, -1, -1, -1, -1, -1, -1, -1, -1, -1, -1, -1, -1
       | -1, -1, -1, -1, -1, -1, -1, -1, -1, -1, -1, -1, -1, -1, -1, -1, -1, -1, -1, -1, -1, -1, -1, -1, -1, -1, -1, -1, -1, -1, -1, -1, -1, -1, -1, -1, -1, -1, -1, -1, -1, -1, -1, -1, -1, -1, -1, -1, -1, -1, -1, -1, -1, -1, -1, 1, 1, -1, -1, -1, -1, -1, -1, -1, -1, -1, -1, -1, -1, -1, -1, -1, -1, -1, -1, -1, -1, -1, -1, -1, -1, -1, -1, -1, -1, -1, -1, -1, -1, -1, -1, -1, -1, -1, -1, -1, -1, -1, -1, -1, -1, -1, -1, -1
       | -1, -1, -1, -1, -1, 1, -1, -1, -1, -1, -1, -1, -1, -1, -1, -1, -1, -1, -1, -1, -1, -1, -1, -1, -1, -1, -1, -1, -1, -1, -1, -1, -1, -1, -1, -1, -1, -1, -1, -1, -1, -1, -1, -1, -1, -1, -1, -1, -1, -1, -1, -1, -1, -1, -1, -1, -1, 1, -1, -1, -1, -1, -1, -1, -1, -1, -1, -1, -1, -1, -1, -1, -1, -1, -1, -1, -1, -1, -1, -1, -1, -1, -1, -1, -1, -1, -1, -1, -1, -1, -1, -1, -1, -1, -1, -1, -1, -1, -1, -1, -1, -1, -1, -1
       | -1, -1, -1, -1, -1, 1, -1, -1, -1, -1, -1, -1, -1, -1, -1, -1, -1, -1, -1, -1, -1, -1, -1, -1, -1, -1, -1, -1, -1, -1, -1, -1, -1, -1, -1, -1, -1, -1, -1, -1, -1, -1, -1, -1, -1, -1, -1, -1, -1, -1, -1, -1, -1, -1, -1, -1, -1, -1, 1, 1, -1, -1, -1, -1, -1, -1, -1, -1, -1, -1, -1, -1, -1, -1, -1, -1, -1, -1, -1, -1, -1, -1, -1, -1, -1, -1, -1, -1, -1, -1, -1, -1, -1, -1, -1, -1, -1, -1, -1, -1, -1, -1, -1, -1
       | -1, -1, -1, -1, -1, -1, -1, -1, -1, -1, -1, -1, -1, -1, -1, -1, -1, -1, -1, -1, -1, -1, -1, -1, -1, -1, -1, -1, -1, -1, -1, -1, -1, -1, -1, -1, -1, -1, -1, -1, -1, -1, -1, -1, -1, -1, -1, -1, -1, -1, -1, -1, -1, -1, -1, -1, -1, -1, 1, 1, -1, -1, -1, -1, -1, -1, -1, -1, -1, -1, -1, -1, -1, -1, -1, -1, -1, -1, -1, -1, -1, -1, -1, -1, -1, -1, -1, -1, -1, -1, -1, -1, -1, -1, -1, -1, -1, -1, -1, -1, -1, -1, -1, -1
       | -1, -1, -1, -1, -1, 1, -1, -1, -1, -1, -1, -1, -1, -1, -1, -1, -1, -1, -1, -1, -1, -1, -1, -1, -1, -1, -1, -1, -1, -1, -1, -1, -1, -1, -1, -1, -1, -1, -1, -1, -1, -1, -1, -1, -1, -1, -1, -1, -1, -1, -1, -1, -1, -1, -1, -1, -1, -1, -1, -1, 1, 0, -1, -1, -1, -1, -1, -1, -1, -1, -1, -1, -1, -1, -1, -1, -1, -1, -1, -1, -1, -1, -1, -1, -1, -1, -1, -1, -1, -1, -1, -1, -1, -1, -1, -1, -1, -1, -1, -1, -1, -1, -1, -1
       | -1, -1, -1, -1, -1, -1, -1, -1, -1, -1, -1, -1, -1, -1, -1, -1, -1, -1, -1, -1, -1, -1, -1, -1, -1, -1, -1, -1, -1, -1, -1, -1, -1, -1, -1, -1, -1, -1, -1, -1, -1, -1, -1, -1, -1, -1, -1, -1, -1, -1, -1, -1, -1, -1, -1, -1, -1, -1, -1, -1, 1, 1, -1, -1, -1, -1, -1, -1, -1, -1, -1, -1, -1, -1, -1, -1, -1, -1, -1, -1, -1, -1, -1, -1, -1, -1, -1, -1, -1, -1, -1, -1, -1, -1, -1, -1, -1, -1, -1, -1, -1, -1, -1, -1
       | -1, -1, -1, -1, -1, -1, 1, -1, -1, -1, -1, -1, -1, -1, -1, -1, -1, -1, -1, -1, -1, -1, -1, -1, -1, -1, -1, -1, -1, -1, -1, -1, -1, -1, -1, -1, -1, -1, -1, -1, -1, -1, -1, -1, -1, -1, -1, -1, -1, -1, -1, -1, -1, -1, -1, -1, -1, -1, -1, -1, -1, -1, 1, -1, -1, -1, -1, -1, -1, -1, -1, -1, -1, -1, -1, -1, -1, -1, -1, -1, -1, -1, -1, -1, -1, -1, -1, -1, -1, -1, -1, -1, -1, -1, -1, -1, -1, -1, -1, -1, -1, -1, -1, -1
       | -1, -1, -1, -1, -1, -1, 1, -1, -1, -1, -1, -1, -1, -1, -1, -1, -1, -1, -1, -1, -1, -1, -1, -1, -1, -1, -1, -1, -1, -1, -1, -1, -1, -1, -1, -1, -1, -1, -1, -1, -1, -1, -1, -1, -1, -1, -1, -1, -1, -1, -1, -1, -1, -1, -1, -1, -1, -1, -1, -1, -1, -1, -1, 1, 1, -1, -1, -1, -1, -1, -1, -1, -1, -1, -1, -1, -1, -1, -1, -1, -1, -1, -1, -1, -1, -1, -1, -1, -1, -1, -1, -1, -1, -1, -1, -1, -1, -1, -1, -1, -1, -1, -1, -1
       | -1, -1, -1, -1, -1, -1, -1, -1, -1, -1, -1, -1, -1, -1, -1, -1, -1, -1, -1, -1, -1, -1, -1, -1, -1, -1, -1, -1, -1, -1, -1, -1, -1, -1, -1, -1, -1, -1, -1, -1, -1, -1, -1, -1, -1, -1, -1, -1, -1, -1, -1, -1, -1, -1, -1, -1, -1, -1, -1, -1, -1, -1, -1, 1, 1, -1, -1, -1, -1, -1, -1, -1, -1, -1, -1, -1, -1, -1, -1, -1, -1, -1, -1, -1, -1, -1, -1, -1, -1, -1, -1, -1, -1, -1, -1, -1, -1, -1, -1, -1, -1, -1, -1, -1
       | -1, -1, -1, -1, -1, -1, 1, -1, -1, -1, -1, -1, -1, -1, -1, -1, -1, -1, -1, -1, -1, -1, -1, -1, -1, -1, -1, -1, -1, -1, -1, -1, -1, -1, -1, -1, -1, -1, -1, -1, -1, -1, -1, -1, -1, -1, -1, -1, -1, -1, -1, -1, -1, -1, -1, -1, -1, -1, -1, -1, -1, -1, -1, -1, -1, 1, 0, -1, -1, -1, -1, -1, -1, -1, -1, -1, -1, -1, -1, -1, -1, -1, -1, -1, -1, -1, -1, -1, -1, -1, -1, -1, -1, -1, -1, -1, -1, -1, -1, -1, -1, -1, -1, -1
       | -1, -1, -1, -1, -1, -1, -1, -1, -1, -1, -1, -1, -1, -1, -1, -1, -1, -1, -1, -1, -1, -1, -1, -1, -1, -1, -1, -1, -1, -1, -1, -1, -1, -1, -1, -1, -1, -1, -1, -1, -1, -1, -1, -1, -1, -1, -1, -1, -1, -1, -1, -1, -1, -1, -1, -1, -1, -1, -1, -1, -1, -1, -1, -1, -1, 1, 1, -1, -1, -1, -1, -1, -1, -1, -1, -1, -1, -1, -1, -1, -1, -1, -1, -1, -1, -1, -1, -1, -1, -1, -1, -1, -1, -1, -1, -1, -1, -1, -1, -1, -1, -1, -1, -1
       | -1, -1, -1, -1, -1, -1, -1, 1, -1, -1, -1, -1, -1, -1, -1, -1, -1, -1, -1, -1, -1, -1, -1, -1, -1, -1, -1, -1, -1, -1, -1, -1, -1, -1, -1, -1, -1, -1, -1, -1, -1, -1, -1, -1, -1, -1, -1, -1, -1, -1, -1, -1, -1, -1, -1, -1, -1, -1, -1, -1, -1, -1, -1, -1, -1, -1, -1, 1, -1, -1, -1, -1, -1, -1, -1, -1, -1, -1, -1, -1, -1, -1, -1, -1, -1, -1, -1, -1, -1, -1, -1, -1, -1, -1, -1, -1, -1, -1, -1, -1, -1, -1, -1, -1
       | -1, -1, -1, -1, -1, -1, -1, 1, -1, -1, -1, -1, -1, -1, -1, -1, -1, -1, -1, -1, -1, -1, -1, -1, -1, -1, -1, -1, -1, -1, -1, -1, -1, -1, -1, -1, -1, -1, -1, -1, -1, -1, -1, -1, -1, -1, -1, -1, -1, -1, -1, -1, -1, -1, -1, -1, -1, -1, -1, -1, -1, -1, -1, -1, -1, -1, -1, -1, 1, 1, -1, -1, -1, -1, -1, -1, -1, -1, -1, -1, -1, -1, -1, -1, -1, -1, -1, -1, -1, -1, -1, -1, -1, -1, -1, -1, -1, -1, -1, -1, -1, -1, -1, -1
       | -1, -1, -1, -1, -1, -1, -1, -1, -1, -1, -1, -1, -1, -1, -1, -1, -1, -1, -1, -1, -1, -1, -1, -1, -1, -1, -1, -1, -1, -1, -1, -1, -1, -1, -1, -1, -1, -1, -1, -1, -1, -1, -1, -1, -1, -1, -1, -1, -1, -1, -1, -1, -1, -1, -1, -1, -1, -1, -1, -1, -1, -1, -1, -1, -1, -1, -1, -1, 1, 1, -1, -1, -1, -1, -1, -1, -1, -1, -1, -1, -1, -1, -1, -1, -1, -1, -1, -1, -1, -1, -1, -1, -1, -1, -1, -1, -1, -1, -1, -1, -1, -1, -1, -1
       | -1, -1, -1, -1, -1, -1, -1, 1, -1, -1, -1, -1, -1, -1, -1, -1, -1, -1, -1, -1, -1, -1, -1, -1, -1, -1, -1, -1, -1, -1, -1, -1, -1, -1, -1, -1, -1, -1, -1, -1, -1, -1, -1, -1, -1, -1, -1, -1, -1, -1, -1, -1, -1, -1, -1, -1, -1, -1, -1, -1, -1, -1, -1, -1, -1, -1, -1, -1, -1, -1, 1, 0, -1, -1, -1, -1, -1, -1, -1, -1, -1, -1, -1, -1, -1, -1, -1, -1, -1, -1, -1, -1, -1, -1, -1, -1, -1, -1, -1, -1, -1, -1, -1, -1
       | -1, -1, -1, -1, -1, -1, -1, -1, -1, -1, -1, -1, -1, -1, -1, -1, -1, -1, -1, -1, -1, -1, -1, -1, -1, -1, -1, -1, -1, -1, -1, -1, -1, -1, -1, -1, -1, -1, -1, -1, -1, -1, -1, -1, -1, -1, -1, -1, -1, -1, -1, -1, -1, -1, -1, -1, -1, -1, -1, -1, -1, -1, -1, -1, -1, -1, -1, -1, -1, -1, 1, 1, -1, -1, -1, -1, -1, -1, -1, -1, -1, -1, -1, -1, -1, -1, -1, -1, -1, -1, -1, -1, -1, -1, -1, -1, -1, -1, -1, -1, -1, -1, -1, -1
       | -1, -1, -1, -1, -1, -1, -1, -1, 1, -1, -1, -1, -1, -1, -1, -1, -1, -1, -1, -1, -1, -1, -1, -1, -1, -1, -1, -1, -1, -1, -1, -1, -1, -1, -1, -1, -1, -1, -1, -1, -1, -1, -1, -1, -1, -1, -1, -1, -1, -1, -1, -1, -1, -1, -1, -1, -1, -1, -1, -1, -1, -1, -1, -1, -1, -1, -1, -1, -1, -1, -1, -1, 1, -1, -1, -1, -1, -1, -1, -1, -1, -1, -1, -1, -1, -1, -1, -1, -1, -1, -1, -1, -1, -1, -1, -1, -1, -1, -1, -1, -1, -1, -1, -1
       | -1, -1, -1, -1, -1, -1, -1, -1, -1, 1, -1, -1, -1, -1, -1, -1, -1, -1, -1, -1, -1, -1, -1, -1, -1, -1, -1, -1, -1, -1, -1, -1, -1, -1, -1, -1, -1, -1, -1, -1, -1, -1, -1, -1, -1, -1, -1, -1, -1, -1, -1, -1, -1, -1, -1, -1, -1, -1, -1, -1, -1, -1, -1, -1, -1, -1, -1, -1, -1, -1, -1, -1, -1, 1, -1, -1, -1, -1, -1, -1, -1, -1, -1, -1, -1, -1, -1, -1, -1, -1, -1, -1, -1, -1, -1, -1, -1, -1, -1, -1, -1, -1, -1, -1
       | -1, -1, -1, -1, -1, -1, -1, -1, -1, -1, 1, -1, -1, -1, -1, -1, -1, -1, -1, -1, -1, -1, -1, -1, -1, -1, -1, -1, -1, -1, -1, -1, -1, -1, -1, -1, -1, -1, -1, -1, -1, -1, -1, -1, -1, -1, -1, -1, -1, -1, -1, -1, -1, -1, -1, -1, -1, -1, -1, -1, -1, -1, -1, -1, -1, -1, -1, -1, -1, -1, -1, -1, -1, -1, 1, -1, -1, -1, -1, -1, -1, -1, -1, -1, -1, -1, -1, -1, -1, -1, -1, -1, -1, -1, -1, -1, -1, -1, -1, -1, -1, -1, -1, -1
       | -1, -1, -1, -1, -1, -1, -1, -1, -1, -1, -1, 1, -1, -1, -1, -1, -1, -1, -1, -1, -1, -1, -1, -1, -1, -1, -1, -1, -1, -1, -1, -1, -1, -1, -1, -1, -1, -1, -1, -1, -1, -1, -1, -1, -1, -1, -1, -1, -1, -1, -1, -1, -1, -1, -1, -1, -1, -1, -1, -1, -1, -1, -1, -1, -1, -1, -1, -1, -1, -1, -1, -1, -1, -1, -1, 1, -1, -1, -1, -1, -1, -1, -1, -1, -1, -1, -1, -1, -1, -1, -1, -1, -1, -1, -1, -1, -1, -1, -1, -1, -1, -1, -1, -1
       | -1, -1, -1, -1, -1, -1, -1, -1, -1, -1, -1, -1, 1, -1, -1, -1, -1, -1, -1, -1, -1, -1, -1, -1, -1, -1, -1, -1, -1, -1, -1, -1, -1, -1, -1, -1, -1, -1, -1, -1, -1, -1, -1, -1, -1, -1, -1, -1, -1, -1, -1, -1, -1, -1, -1, -1, -1, -1, -1, -1, -1, -1, -1, -1, -1, -1, -1, -1, -1, -1, -1, -1, -1, -1, -1, -1, 1, -1, -1, -1, -1, -1, -1, -1, -1, -1, -1, -1, -1, -1, -1, -1, -1, -1, -1, -1, -1, -1, -1, -1, -1, -1, -1, -1
       | -1, -1, -1, -1, -1, -1, -1, -1, -1, -1, -1, -1, -1, 1, -1, -1, -1, -1, -1, -1, -1, -1, -1, -1, -1, -1, -1, -1, -1, -1, -1, -1, -1, -1, -1, -1, -1, -1, -1, -1, -1, -1, -1, -1, -1, -1, -1, -1, -1, -1, -1, -1, -1, -1, -1, -1, -1, -1, -1, -1, -1, -1, -1, -1, -1, -1, -1, -1, -1, -1, -1, -1, -1, -1, -1, -1, -1, 1, -1, -1, -1, -1, -1, -1, -1, -1, -1, -1, -1, -1, -1, -1, -1, -1, -1, -1, -1, -1, -1, -1, -1, -1, -1, -1
       | -1, -1, -1, -1, -1, -1, -1, -1, -1, -1, -1, -1, -1, -1, 1, -1, -1, -1, -1, -1, -1, -1, -1, -1, -1, -1, -1, -1, -1, -1, -1, -1, -1, -1, -1, -1, -1, -1, -1, -1, -1, -1, -1, -1, -1, -1, -1, -1, -1, -1, -1, -1, -1, -1, -1, -1, -1, -1, -1, -1, -1, -1, -1, -1, -1, -1, -1, -1, -1, -1, -1, -1, -1, -1, -1, -1, -1, -1, 1, -1, -1, -1, -1, -1, -1, -1, -1, -1, -1, -1, -1, -1, -1, -1, -1, -1, -1, -1, -1, -1, -1, -1, -1, -1
       | -1, -1, -1, -1, -1, -1, -1, -1, -1, -1, -1, -1, -1, -1, -1, 1, -1, -1, -1, -1, -1, -1, -1, -1, -1, -1, -1, -1, -1, -1, -1, -1, -1, -1, -1, -1, -1, -1, -1, -1, -1, -1, -1, -1, -1, -1, -1, -1, -1, -1, -1, -1, -1, -1, -1, -1, -1, -1, -1, -1, -1, -1, -1, -1, -1, -1, -1, -1, -1, -1, -1, -1, -1, -1, -1, -1, -1, -1, -1, 1, -1, -1, -1, -1, -1, -1, -1, -1, -1, -1, -1, -1, -1, -1, -1, -1, -1, -1, -1, -1, -1, -1, -1, -1
       | -1, -1, -1, -1, -1, -1, -1, -1, -1, -1, -1, -1, -1, -1, -1, -1, 1, -1, -1, -1, -1, -1, -1, -1, -1, -1, -1, -1, -1, -1, -1, -1, -1, -1, -1, -1, -1, -1, -1, -1, -1, -1, -1, -1, -1, -1, -1, -1, -1, -1, -1, -1, -1, -1, -1, -1, -1, -1, -1, -1, -1, -1, -1, -1, -1, -1, -1, -1, -1, -1, -1, -1, -1, -1, -1, -1, -1, -1, -1, -1, 1, -1, -1, -1, -1, -1, -1, -1, -1, -1, -1, -1, -1, -1, -1, -1, -1, -1, -1, -1, -1, -1, -1, -1
       | -1, -1, -1, -1, -1, -1, -1, -1, -1, -1, -1, -1, -1, -1, -1, -1, 1, -1, -1, -1, -1, -1, -1, -1, -1, -1, -1, -1, -1, -1, -1, -1, -1, -1, -1, -1, -1, -1, -1, -1, -1, -1, -1, -1, -1, -1, -1, -1, -1, -1, -1, -1, -1, -1, -1, -1, -1, -1, -1, -1, -1, -1, -1, -1, -1, -1, -1, -1, -1, -1, -1, -1, -1, -1, -1, -1, -1, -1, -1, -1, -1, 1, -1, -1, -1, -1, -1, -1, -1, -1, -1, -1, -1, -1, -1, -1, -1, -1, -1, -1, -1, -1, -1, -1
       | -1, -1, -1, -1, -1, -1, -1, -1, -1, -1, -1, -1, -1, -1, -1, -1, -1, 1, -1, -1, -1, -1, -1, -1, -1, -1, -1, -1, -1, -1, -1, -1, -1, -1, -1, -1, -1, -1, -1, -1, -1, -1, -1, -1, -1, -1, -1, -1, -1, -1, -1, -1, -1, -1, -1, -1, -1, -1, -1, -1, -1, -1, -1, -1, -1, -1, -1, -1, -1, -1, -1, -1, -1, -1, -1, -1, -1, -1, -1, -1, -1, -1, 1, -1, -1, -1, -1, -1, -1, -1, -1, -1, -1, -1, -1, -1, -1, -1, -1, -1, -1, -1, -1, -1
       | -1, -1, -1, -1, -1, -1, -1, -1, -1, -1, -1, -1, -1, -1, -1, -1, -1, -1, 1, -1, -1, -1, -1, -1, -1, -1, -1, -1, -1, -1, -1, -1, -1, -1, -1, -1, -1, -1, -1, -1, -1, -1, -1, -1, -1, -1, -1, -1, -1, -1, -1, -1, -1, -1, -1, -1, -1, -1, -1, -1, -1, -1, -1, -1, -1, -1, -1, -1, -1, -1, -1, -1, -1, -1, -1, -1, -1, -1, -1, -1, -1, -1, -1, 1, -1, -1, -1, -1, -1, -1, -1, -1, -1, -1, -1, -1, -1, -1, -1, -1, -1, -1, -1, -1
       | -1, -1, -1, -1, -1, -1, -1, -1, -1, -1, -1, -1, -1, -1, -1, -1, -1, -1, 1, -1, -1, -1, -1, -1, -1, -1, -1, -1, -1, -1, -1, -1, -1, -1, -1, -1, -1, -1, -1, -1, -1, -1, -1, -1, -1, -1, -1, -1, -1, -1, -1, -1, -1, -1, -1, -1, -1, -1, -1, -1, -1, -1, -1, -1, -1, -1, -1, -1, -1, -1, -1, -1, -1, -1, -1, -1, -1, -1, -1, -1, -1, -1, -1, -1, 1, -1, -1, -1, -1, -1, -1, -1, -1, -1, -1, -1, -1, -1, -1, -1, -1, -1, -1, -1
       | -1, -1, -1, -1, -1, -1, -1, -1, -1, -1, -1, -1, -1, -1, -1, -1, -1, -1, -1, 1, -1, -1, -1, -1, -1, -1, -1, -1, -1, -1, -1, -1, -1, -1, -1, -1, -1, -1, -1, -1, -1, -1, -1, -1, -1, -1, -1, -1, -1, -1, -1, -1, -1, -1, -1, -1, -1, -1, -1, -1, -1, -1, -1, -1, -1, -1, -1, -1, -1, -1, -1, -1, -1, -1, -1, -1, -1, -1, -1, -1, -1, -1, -1, -1, -1, 1, -1, -1, -1, -1, -1, -1, -1, -1, -1, -1, -1, -1, -1, -1, -1, -1, -1, -1
       | -1, -1, -1, -1, -1, -1, -1, -1, -1, -1, -1, -1, -1, -1, -1, -1, -1, -1, -1, -1, 1, -1, -1, -1, -1, -1, -1, -1, -1, -1, -1, -1, -1, -1, -1, -1, -1, -1, -1, -1, -1, -1, -1, -1, -1, -1, -1, -1, -1, -1, -1, -1, -1, -1, -1, -1, -1, -1, -1, -1, -1, -1, -1, -1, -1, -1, -1, -1, -1, -1, -1, -1, -1, -1, -1, -1, -1, -1, -1, -1, -1, -1, -1, -1, -1, -1, 1, -1, -1, -1, -1, -1, -1, -1, -1, -1, -1, -1, -1, -1, -1, -1, -1, -1
       | -1, -1, -1, -1, -1, -1, -1, -1, -1, -1, -1, -1, -1, -1, -1, -1, -1, -1, -1, -1, 1, -1, -1, -1, -1, -1, -1, -1, -1, -1, -1, -1, -1, -1, -1, -1, -1, -1, -1, -1, -1, -1, -1, -1, -1, -1, -1, -1, -1, -1, -1, -1, -1, -1, -1, -1, -1, -1, -1, -1, -1, -1, -1, -1, -1, -1, -1, -1, -1, -1, -1, -1, -1, -1, -1, -1, -1, -1, -1, -1, -1, -1, -1, -1, -1, -1, -1, 1, -1, -1, -1, -1, -1, -1, -1, -1, -1, -1, -1, -1, -1, -1, -1, -1
       | -1, -1, -1, -1, -1, -1, -1, -1, -1, -1, -1, -1, -1, -1, -1, -1, -1, -1, -1, -1, -1, 1, -1, -1, -1, -1, -1, -1, -1, -1, -1, -1, -1, -1, -1, -1, -1, -1, -1, -1, -1, -1, -1, -1, -1, -1, -1, -1, -1, -1, -1, -1, -1, -1, -1, -1, -1, -1, -1, -1, -1, -1, -1, -1, -1, -1, -1, -1, -1, -1, -1, -1, -1, -1, -1, -1, -1, -1, -1, -1, -1, -1, -1, -1, -1, -1, -1, -1, 1, -1, -1, -1, -1, -1, -1, -1, -1, -1, -1, -1, -1, -1, -1, -1
       | -1, -1, -1, -1, -1, -1, -1, -1, -1, -1, -1, -1, -1, -1, -1, -1, -1, -1, -1, -1, -1, -1, 1, -1, -1, -1, -1, -1, -1, -1, -1, -1, -1, -1, -1, -1, -1, -1, -1, -1, -1, -1, -1, -1, -1, -1, -1, -1, -1, -1, -1, -1, -1, -1, -1, -1, -1, -1, -1, -1, -1, -1, -1, -1, -1, -1, -1, -1, -1, -1, -1, -1, -1, -1, -1, -1, -1, -1, -1, -1, -1, -1, -1, -1, -1, -1, -1, -1, -1, 1, -1, -1, -1, -1, -1, -1, -1, -1, -1, -1, -1, -1, -1, -1
       | -1, -1, -1, -1, -1, -1, -1, -1, -1, -1, -1, -1, -1, -1, -1, -1, -1, -1, -1, -1, -1, -1, 1, -1, -1, -1, -1, -1, -1, -1, -1, -1, -1, -1, -1, -1, -1, -1, -1, -1, -1, -1, -1, -1, -1, -1, -1, -1, -1, -1, -1, -1, -1, -1, -1, -1, -1, -1, -1, -1, -1, -1, -1, -1, -1, -1, -1, -1, -1, -1, -1, -1, -1, -1, -1, -1, -1, -1, -1, -1, -1, -1, -1, -1, -1, -1, -1, -1, -1, -1, 1, -1, -1, -1, -1, -1, -1, -1, -1, -1, -1, -1, -1, -1
       | -1, -1, -1, -1, -1, -1, -1, -1, -1, -1, -1, -1, -1, -1, -1, -1, -1, -1, -1, -1, -1, -1, -1, 1, -1, -1, -1, -1, -1, -1, -1, -1, -1, -1, -1, -1, -1, -1, -1, -1, -1, -1, -1, -1, -1, -1, -1, -1, -1, -1, -1, -1, -1, -1, -1, -1, -1, -1, -1, -1, -1, -1, -1, -1, -1, -1, -1, -1, -1, -1, -1, -1, -1, -1, -1, -1, -1, -1, -1, -1, -1, -1, -1, -1, -1, -1, -1, -1, -1, -1, -1, 1, -1, -1, -1, -1, -1, -1, -1, -1, -1, -1, -1, -1
       | -1, -1, -1, -1, -1, -1, -1, -1, -1, -1, -1, -1, -1, -1, -1, -1, -1, -1, -1, -1, -1, -1, -1, -1, 1, -1, -1, -1, -1, -1, -1, -1, -1, -1, -1, -1, -1, -1, -1, -1, -1, -1, -1, -1, -1, -1, -1, -1, -1, -1, -1, -1, -1, -1, -1, -1, -1, -1, -1, -1, -1, -1, -1, -1, -1, -1, -1, -1, -1, -1, -1, -1, -1, -1, -1, -1, -1, -1, -1, -1, -1, -1, -1, -1, -1, -1, -1, -1, -1, -1, -1, -1, 1, -1, -1, -1, -1, -1, -1, -1, -1, -1, -1, -1
       | -1, -1, -1, -1, -1, -1, -1, -1, -1, -1, -1, -1, -1, -1, -1, -1, -1, -1, -1, -1, -1, -1, -1, -1, 1, -1, -1, -1, -1, -1, -1, -1, -1, -1, -1, -1, -1, -1, -1, -1, -1, -1, -1, -1, -1, -1, -1, -1, -1, -1, -1, -1, -1, -1, -1, -1, -1, -1, -1, -1, -1, -1, -1, -1, -1, -1, -1, -1, -1, -1, -1, -1, -1, -1, -1, -1, -1, -1, -1, -1, -1, -1, -1, -1, -1, -1, -1, -1, -1, -1, -1, -1, -1, 1, -1, -1, -1, -1, -1, -1, -1, -1, -1, -1
       | -1, -1, -1, -1, -1, -1, -1, -1, -1, -1, -1, -1, -1, -1, -1, -1, -1, -1, -1, -1, -1, -1, -1, -1, -1, 1, -1, -1, -1, -1, -1, -1, -1, -1, -1, -1, -1, -1, -1, -1, -1, -1, -1, -1, -1, -1, -1, -1, -1, -1, -1, -1, -1, -1, -1, -1, -1, -1, -1, -1, -1, -1, -1, -1, -1, -1, -1, -1, -1, -1, -1, -1, -1, -1, -1, -1, -1, -1, -1, -1, -1, -1, -1, -1, -1, -1, -1, -1, -1, -1, -1, -1, -1, -1, 1, -1, -1, -1, -1, -1, -1, -1, -1, -1
       | -1, -1, -1, -1, -1, -1, -1, -1, -1, -1, -1, -1, -1, -1, -1, -1, -1, -1, -1, -1, -1, -1, -1, -1, -1, -1, 1, -1, -1, -1, -1, -1, -1, -1, -1, -1, -1, -1, -1, -1, -1, -1, -1, -1, -1, -1, -1, -1, -1, -1, -1, -1, -1, -1, -1, -1, -1, -1, -1, -1, -1, -1, -1, -1, -1, -1, -1, -1, -1, -1, -1, -1, -1, -1, -1, -1, -1, -1, -1, -1, -1, -1, -1, -1, -1, -1, -1, -1, -1, -1, -1, -1, -1, -1, -1, 1, -1, -1, -1, -1, -1, -1, -1, -1
       | -1, -1, -1, -1, -1, -1, -1, -1, -1, -1, -1, -1, -1, -1, -1, -1, -1, -1, -1, -1, -1, -1, -1, -1, -1, -1, 1, -1, -1, -1, -1, -1, -1, -1, -1, -1, -1, -1, -1, -1, -1, -1, -1, -1, -1, -1, -1, -1, -1, -1, -1, -1, -1, -1, -1, -1, -1, -1, -1, -1, -1, -1, -1, -1, -1, -1, -1, -1, -1, -1, -1, -1, -1, -1, -1, -1, -1, -1, -1, -1, -1, -1, -1, -1, -1, -1, -1, -1, -1, -1, -1, -1, -1, -1, -1, -1, 1, -1, -1, -1, -1, -1, -1, -1
       | -1, -1, -1, -1, -1, -1, -1, -1, -1, -1, -1, -1, -1, -1, -1, -1, -1, -1, -1, -1, -1, -1, -1, -1, -1, -1, -1, 1, -1, -1, -1, -1, -1, -1, -1, -1, -1, -1, -1, -1, -1, -1, -1, -1, -1, -1, -1, -1, -1, -1, -1, -1, -1, -1, -1, -1, -1, -1, -1, -1, -1, -1, -1, -1, -1, -1, -1, -1, -1, -1, -1, -1, -1, -1, -1, -1, -1, -1, -1, -1, -1, -1, -1, -1, -1, -1, -1, -1, -1, -1, -1, -1, -1, -1, -1, -1, -1, 1, -1, -1, -1, -1, -1, -1
       | -1, -1, -1, -1, -1, -1, -1, -1, -1, -1, -1, -1, -1, -1, -1, -1, -1, -1, -1, -1, -1, -1, -1, -1, -1, -1, -1, -1, 1, -1, -1, -1, -1, -1, -1, -1, -1, -1, -1, -1, -1, -1, -1, -1, -1, -1, -1, -1, -1, -1, -1, -1, -1, -1, -1, -1, -1, -1, -1, -1, -1, -1, -1, -1, -1, -1, -1, -1, -1, -1, -1, -1, -1, -1, -1, -1, -1, -1, -1, -1, -1, -1, -1, -1, -1, -1, -1, -1, -1, -1, -1, -1, -1, -1, -1, -1, -1, -1, 1, -1, -1, -1, -1, -1
       | -1, -1, -1, -1, -1, -1, -1, -1, -1, -1, -1, -1, -1, -1, -1, -1, -1, -1, -1, -1, -1, -1, -1, -1, -1, -1, -1, -1, 1, -1, -1, -1, -1, -1, -1, -1, -1, -1, -1, -1, -1, -1, -1, -1, -1, -1, -1, -1, -1, -1, -1, -1, -1, -1, -1, -1, -1, -1, -1, -1, -1, -1, -1, -1, -1, -1, -1, -1, -1, -1, -1, -1, -1, -1, -1, -1, -1, -1, -1, -1, -1, -1, -1, -1, -1, -1, -1, -1, -1, -1, -1, -1, -1, -1, -1, -1, -1, -1, -1, 1, -1, -1, -1, -1
       | -1, -1, -1, -1, -1, -1, -1, -1, -1, -1, -1, -1, -1, -1, -1, -1, -1, -1, -1, -1, -1, -1, -1, -1, -1, -1, -1, -1, -1, 1, -1, -1, -1, -1, -1, -1, -1, -1, -1, -1, -1, -1, -1, -1, -1, -1, -1, -1, -1, -1, -1, -1, -1, -1, -1, -1, -1, -1, -1, -1, -1, -1, -1, -1, -1, -1, -1, -1, -1, -1, -1, -1, -1, -1, -1, -1, -1, -1, -1, -1, -1, -1, -1, -1, -1, -1, -1, -1, -1, -1, -1, -1, -1, -1, -1, -1, -1, -1, -1, -1, 1, -1, -1, -1
       | -1, -1, -1, -1, -1, -1, -1, -1, -1, -1, -1, -1, -1, -1, -1, -1, -1, -1, -1, -1, -1, -1, -1, -1, -1, -1, -1, -1, -1, -1, 1, -1, -1, -1, -1, -1, -1, -1, -1, -1, -1, -1, -1, -1, -1, -1, -1, -1, -1, -1, -1, -1, -1, -1, -1, -1, -1, -1, -1, -1, -1, -1, -1, -1, -1, -1, -1, -1, -1, -1, -1, -1, -1, -1, -1, -1, -1, -1, -1, -1, -1, -1, -1, -1, -1, -1, -1, -1, -1, -1, -1, -1, -1, -1, -1, -1, -1, -1, -1, -1, -1, 1, -1, -1
       | -1, -1, -1, -1, -1, -1, -1, -1, -1, -1, -1, -1, -1, -1, -1, -1, -1, -1, -1, -1, -1, -1, -1, -1, -1, -1, -1, -1, -1, -1, 1, -1, -1, -1, -1, -1, -1, -1, -1, -1, -1, -1, -1, -1, -1, -1, -1, -1, -1, -1, -1, -1, -1, -1, -1, -1, -1, -1, -1, -1, -1, -1, -1, -1, -1, -1, -1, -1, -1, -1, -1, -1, -1, -1, -1, -1, -1, -1, -1, -1, -1, -1, -1, -1, -1, -1, -1, -1, -1, -1, -1, -1, -1, -1, -1, -1, -1, -1, -1, -1, -1, -1, 1, -1
       | -1, -1, -1, -1, -1, -1, -1, -1, -1, -1, -1, -1, -1, -1, -1, -1, -1, -1, -1, -1, -1, -1, -1, -1, -1, -1, -1, -1, -1, -1, -1, 1, -1, -1, -1, -1, -1, -1, -1, -1, -1, -1, -1, -1, -1, -1, -1, -1, -1, -1, -1, -1, -1, -1, -1, -1, -1, -1, -1, -1, -1, -1, -1, -1, -1, -1, -1, -1, -1, -1, -1, -1, -1, -1, -1, -1, -1, -1, -1, -1, -1, -1, -1, -1, -1, -1, -1, -1, -1, -1, -1, -1, -1, -1, -1, -1, -1, -1, -1, -1, -1, -1, -1, 1 |]);

% ---- platform ----
P = 8;
nFCR = 8;
nCoreTypes = 3;
nModes = 1;
ctype = [1, 1, 1, 2, 2, 2, 3, 3];
fcr = [1, 2, 3, 4, 5, 6, 7, 8];
core_model = ["proc_0", "proc_1", "proc_2"];
max_sil = [4, 4, 4];
core_mem = [64000, 64000, 64000];
partitionable = [false, false, false];
partition_cost = [0, 0, 0];
n_modes_of = [1, 1, 1];
fcr_price = [10, 10, 10, 20, 20, 20, 30, 30];
core_price = array2d(1..3, 1..1,
  [| 10
     | 20
     | 30 |]);
core_power = array2d(1..3, 1..1,
  [| 50
     | 60
     | 70 |]);

% symmetry classes: slots that are genuinely interchangeable
nSymClasses = 0;
symClassSize = [];
maxSymClassSize = 1;
symClass = array2d(1..1, 1..1,
  [| 0 |]);
nInterGroups = 3;
maxInterGroupSize = 3;
interGroupSize = [3, 3, 2];
interGroup = array2d(1..3, 1..3,
  [| 1, 2, 3
     | 4, 5, 6
     | 7, 8, 0 |]);
nTmplGroups = 3;
maxTmplGroupSize = 3;
tmplGroupSize = [3, 3, 2];
tmplGroup = array2d(1..3, 1..3,
  [| 1, 2, 3
     | 4, 5, 6
     | 7, 8, 0 |]);

% ---- timing ----
wcet = array3d(1..104, 1..3, 1..1, [1000000, 9, 1000000, 8, 10, 14, 1000000, 13, 1000000, 15, 5, 1000000, 9, 1000000, 1000000, 1000000, 1000000, 11, 1000000, 14, 1000000, 13, 8, 1000000, 4, 7, 1000000, 9, 9, 1000000, 14, 1000000, 1000000, 1000000, 15, 17, 7, 1000000, 1000000, 1000000, 1000000, 7, 5, 7, 12, 10, 8, 1000000, 1000000, 1000000, 4, 7, 2, 1000000, 1000000, 6, 1000000, 1000000, 11, 18, 14, 1000000, 1000000, 11, 1000000, 14, 18, 10, 1000000, 1000000, 1000000, 4, 15, 1000000, 1000000, 1000000, 1, 1000000, 13, 1000000, 1000000, 5, 7, 1000000, 12, 8, 1000000, 1000000, 1000000, 10, 1000000, 19, 7, 1000000, 10, 1000000, 1000000, 9, 1000000, 1000000, 3, 1000000, 1000000, 3, 1000000, 1000000, 9, 1000000, 1000000, 9, 1000000, 8, 10, 14, 2, 3, 4, 2, 3, 4, 8, 10, 14, 8, 10, 14, 1000000, 13, 1000000, 1000000, 4, 1000000, 1000000, 4, 1000000, 1000000, 13, 1000000, 1000000, 13, 1000000, 15, 5, 1000000, 4, 2, 1000000, 4, 2, 1000000, 15, 5, 1000000, 15, 5, 1000000, 9, 1000000, 1000000, 3, 1000000, 1000000, 3, 1000000, 1000000, 9, 1000000, 1000000, 9, 1000000, 1000000, 1000000, 1000000, 11, 1000000, 1000000, 3, 1000000, 1000000, 3, 1000000, 1000000, 11, 1000000, 1000000, 11, 1000000, 14, 1000000, 1000000, 4, 1000000, 1000000, 4, 1000000, 1000000, 14, 1000000, 1000000, 14, 1000000, 13, 8, 1000000, 4, 2, 1000000, 4, 2, 1000000, 13, 8, 1000000, 13, 8, 1000000, 1, 2, 1000000, 3, 3, 1000000, 4, 1000000, 1000000, 1000000, 4, 5, 2, 1000000, 1000000, 1000000, 1000000, 2, 2, 2, 4, 3, 2, 1000000, 1000000, 1000000, 1, 1000000, 1000000, 4, 7, 2, 1000000, 1000000, 2, 1000000, 1000000, 6, 1000000, 1000000, 11, 18, 4, 1000000, 1000000, 14, 1000000, 1000000, 11, 1000000, 14, 5, 3, 1000000, 18, 10, 1000000, 1000000, 1000000, 4, 4, 1000000, 1000000, 15, 1000000, 1000000, 1000000, 1, 1000000, 4, 1000000, 1000000, 13, 1000000, 1000000, 5, 7, 1000000, 4, 2, 1000000, 12, 8, 1000000, 1000000, 1000000, 10, 1000000, 6, 2, 1000000, 19, 7, 1000000, 10, 1000000]);
mem_req = [1, 1, 1, 1, 1, 1, 1, 1, 1, 1, 1, 1, 1, 1, 1, 1, 1, 1, 1, 1, 1, 1, 1, 1, 1, 1, 1, 1, 1, 1, 1, 1, 1, 1, 1, 1, 1, 1, 1, 1, 1, 1, 1, 1, 1, 1, 1, 1, 1, 1, 1, 1, 1, 1, 1, 1, 1, 1, 1, 1, 1, 1, 1, 1, 1, 1, 1, 1, 1, 1, 1, 1, 1, 1, 1, 1, 1, 1, 1, 1, 1, 1, 1, 1, 1, 1, 1, 1, 1, 1, 1, 1, 1, 1, 1, 1, 1, 1, 1, 1, 1, 1, 1, 1];

% ---- safety ----
sil_req_parent = [3, 3, 3, 3, 3, 3, 3, 3, 2, 2, 2, 2, 2, 2, 2, 2, 1, 0, 1, 0, 1, 0, 1, 0, 1, 0, 1, 0, 1, 0, 1, 0, 3, 3, 3, 3, 3, 3, 3, 3, 3, 3, 3, 3, 3, 3, 3, 3, 3, 3, 3, 3, 3, 3, 3, 3, 3, 3, 3, 3, 3, 3, 3, 3, 3, 3, 3, 3, 3, 3, 3, 3, 2, 2, 2, 2, 2, 2, 2, 2, 1, 1, 0, 1, 1, 0, 1, 1, 0, 1, 1, 0, 1, 1, 0, 1, 1, 0, 1, 1, 0, 1, 1, 0];
dev_base = [100, 100, 100, 100, 100, 100, 100, 100, 100, 100, 100, 100, 100, 100, 100, 100, 100, 100, 100, 100, 100, 100, 100, 100, 100, 100, 100, 100, 100, 100, 100, 100, 100, 100, 100, 100, 100, 100, 100, 100, 100, 100, 100, 100, 100, 100, 100, 100, 100, 100, 100, 100, 100, 100, 100, 100, 100, 100, 100, 100, 100, 100, 100, 100, 100, 100, 100, 100, 100, 100, 100, 100, 100, 100, 100, 100, 100, 100, 100, 100, 100, 100, 100, 100, 100, 100, 100, 100, 100, 100, 100, 100, 100, 100, 100, 100, 100, 100, 100, 100, 100, 100, 100, 100];
dev_k = array1d(0..4, [100, 113, 225, 518, 906]);
allow_promotion = true;

% ---- design constraints ----
period_ub = [181];
min_wcet = [9, 8, 13, 5, 9, 11, 14, 8, 4, 9, 14, 15, 7, 7, 5, 8, 4, 2, 6, 11, 14, 11, 10, 4, 15, 1, 13, 5, 8, 10, 7, 10, 9, 3, 3, 9, 9, 8, 2, 2, 8, 8, 13, 4, 4, 13, 13, 5, 2, 2, 5, 5, 9, 3, 3, 9, 9, 11, 3, 3, 11, 11, 14, 4, 4, 14, 14, 8, 2, 2, 8, 8, 1, 3, 4, 4, 2, 2, 2, 2, 1, 4, 2, 2, 6, 11, 4, 14, 11, 3, 10, 4, 4, 15, 1, 4, 13, 5, 2, 8, 10, 2, 7, 10];
min_procs = [2];
period_mode_partitioned = false;

% ---- latency ----
nLatCon = 0;
lat_src = [];
lat_dst = [];
lat_rho = [];
lat_ub  = [];

% ---- safety patterns: guarded superposition ----
nPat = 9;
pat_name = ["none", "low_sil_doer_checker", "two_of_two_high_sil", "high_sil_isolated_checker", "mixed_sil_doer_checker", "same_cpu_doer_checker", "dual_two_of_two", "one_of_two_failover", "low_sil_diverse_doer_checker"];
pat_recurring = [0, 2, 2, 2, 3, 1, 4, 2, 2];
pat_allowed = array2d(1..104, 1..9,
  [| false, false, true, true, true, false, true, false, false
     | false, false, true, true, true, false, true, false, false
     | false, false, true, true, true, false, true, false, false
     | false, false, true, true, true, false, true, false, false
     | false, false, true, true, true, false, true, false, false
     | false, false, true, true, true, false, true, false, false
     | false, false, true, true, true, false, true, false, false
     | false, false, true, true, true, false, true, false, false
     | false, true, false, false, false, false, false, false, true
     | false, true, false, false, false, false, false, false, true
     | false, true, false, false, false, false, false, false, true
     | false, true, false, false, false, false, false, false, true
     | false, true, false, false, false, false, false, false, true
     | false, true, false, false, false, false, false, false, true
     | false, true, false, false, false, false, false, false, true
     | false, true, false, false, false, false, false, false, true
     | true, true, false, false, false, false, false, true, true
     | true, false, false, false, false, false, false, true, false
     | true, true, false, false, false, false, false, true, true
     | true, false, false, false, false, false, false, true, false
     | true, true, false, false, false, false, false, true, true
     | true, false, false, false, false, false, false, true, false
     | true, true, false, false, false, false, false, true, true
     | true, false, false, false, false, false, false, true, false
     | true, true, false, false, false, false, false, true, true
     | true, false, false, false, false, false, false, true, false
     | true, true, false, false, false, false, false, true, true
     | true, false, false, false, false, false, false, true, false
     | true, true, false, false, false, false, false, true, true
     | true, false, false, false, false, false, false, true, false
     | true, true, false, false, false, false, false, true, true
     | true, false, false, false, false, false, false, true, false
     | false, false, true, true, true, false, true, false, false
     | false, false, true, true, true, false, true, false, false
     | false, false, true, true, true, false, true, false, false
     | false, false, true, true, true, false, true, false, false
     | false, false, true, true, true, false, true, false, false
     | false, false, true, true, true, false, true, false, false
     | false, false, true, true, true, false, true, false, false
     | false, false, true, true, true, false, true, false, false
     | false, false, true, true, true, false, true, false, false
     | false, false, true, true, true, false, true, false, false
     | false, false, true, true, true, false, true, false, false
     | false, false, true, true, true, false, true, false, false
     | false, false, true, true, true, false, true, false, false
     | false, false, true, true, true, false, true, false, false
     | false, false, true, true, true, false, true, false, false
     | false, false, true, true, true, false, true, false, false
     | false, false, true, true, true, false, true, false, false
     | false, false, true, true, true, false, true, false, false
     | false, false, true, true, true, false, true, false, false
     | false, false, true, true, true, false, true, false, false
     | false, false, true, true, true, false, true, false, false
     | false, false, true, true, true, false, true, false, false
     | false, false, true, true, true, false, true, false, false
     | false, false, true, true, true, false, true, false, false
     | false, false, true, true, true, false, true, false, false
     | false, false, true, true, true, false, true, false, false
     | false, false, true, true, true, false, true, false, false
     | false, false, true, true, true, false, true, false, false
     | false, false, true, true, true, false, true, false, false
     | false, false, true, true, true, false, true, false, false
     | false, false, true, true, true, false, true, false, false
     | false, false, true, true, true, false, true, false, false
     | false, false, true, true, true, false, true, false, false
     | false, false, true, true, true, false, true, false, false
     | false, false, true, true, true, false, true, false, false
     | false, false, true, true, true, false, true, false, false
     | false, false, true, true, true, false, true, false, false
     | false, false, true, true, true, false, true, false, false
     | false, false, true, true, true, false, true, false, false
     | false, false, true, true, true, false, true, false, false
     | false, true, false, false, false, false, false, false, true
     | false, true, false, false, false, false, false, false, true
     | false, true, false, false, false, false, false, false, true
     | false, true, false, false, false, false, false, false, true
     | false, true, false, false, false, false, false, false, true
     | false, true, false, false, false, false, false, false, true
     | false, true, false, false, false, false, false, false, true
     | false, true, false, false, false, false, false, false, true
     | true, true, false, false, false, false, false, true, true
     | true, true, false, false, false, false, false, true, true
     | true, false, false, false, false, false, false, true, false
     | true, true, false, false, false, false, false, true, true
     | true, true, false, false, false, false, false, true, true
     | true, false, false, false, false, false, false, true, false
     | true, true, false, false, false, false, false, true, true
     | true, true, false, false, false, false, false, true, true
     | true, false, false, false, false, false, false, true, false
     | true, true, false, false, false, false, false, true, true
     | true, true, false, false, false, false, false, true, true
     | true, false, false, false, false, false, false, true, false
     | true, true, false, false, false, false, false, true, true
     | true, true, false, false, false, false, false, true, true
     | true, false, false, false, false, false, false, true, false
     | true, true, false, false, false, false, false, true, true
     | true, true, false, false, false, false, false, true, true
     | true, false, false, false, false, false, false, true, false
     | true, true, false, false, false, false, false, true, true
     | true, true, false, false, false, false, false, true, true
     | true, false, false, false, false, false, false, true, false
     | true, true, false, false, false, false, false, true, true
     | true, true, false, false, false, false, false, true, true
     | true, false, false, false, false, false, false, true, false |]);
par_owner = [1, 2, 3, 4, 5, 6, 7, 8, 9, 10, 11, 12, 13, 14, 15, 16, 17, 18, 19, 20, 21, 22, 23, 24, 25, 26, 27, 28, 29, 30, 31, 32, 1, 1, 1, 1, 1, 2, 2, 2, 2, 2, 3, 3, 3, 3, 3, 4, 4, 4, 4, 4, 5, 5, 5, 5, 5, 6, 6, 6, 6, 6, 7, 7, 7, 7, 7, 8, 8, 8, 8, 8, 9, 10, 11, 12, 13, 14, 15, 16, 17, 17, 18, 19, 19, 20, 21, 21, 22, 23, 23, 24, 25, 25, 26, 27, 27, 28, 29, 29, 30, 31, 31, 32];
node_owner = [1, 2, 3, 4, 5, 6, 7, 8, 9, 10, 11, 12, 13, 14, 15, 16, 17, 18, 19, 20, 21, 22, 23, 24, 25, 26, 27, 28, 29, 30, 31, 32, 1, 1, 1, 1, 1, 2, 2, 2, 2, 2, 3, 3, 3, 3, 3, 4, 4, 4, 4, 4, 5, 5, 5, 5, 5, 6, 6, 6, 6, 6, 7, 7, 7, 7, 7, 8, 8, 8, 8, 8, 9, 10, 11, 12, 13, 14, 15, 16, 17, 17, 18, 19, 19, 20, 21, 21, 22, 23, 23, 24, 25, 25, 26, 27, 27, 28, 29, 29, 30, 31, 31, 32];
owner_node = [1, 2, 3, 4, 5, 6, 7, 8, 9, 10, 11, 12, 13, 14, 15, 16, 17, 18, 19, 20, 21, 22, 23, 24, 25, 26, 27, 28, 29, 30, 31, 32, 1, 1, 1, 1, 1, 2, 2, 2, 2, 2, 3, 3, 3, 3, 3, 4, 4, 4, 4, 4, 5, 5, 5, 5, 5, 6, 6, 6, 6, 6, 7, 7, 7, 7, 7, 8, 8, 8, 8, 8, 9, 10, 11, 12, 13, 14, 15, 16, 17, 17, 18, 19, 19, 20, 21, 21, 22, 23, 23, 24, 25, 25, 26, 27, 27, 28, 29, 29, 30, 31, 31, 32];
node_guard = array2d(1..104, 1..9,
  [| true, true, true, true, true, true, true, true, true
     | true, true, true, true, true, true, true, true, true
     | true, true, true, true, true, true, true, true, true
     | true, true, true, true, true, true, true, true, true
     | true, true, true, true, true, true, true, true, true
     | true, true, true, true, true, true, true, true, true
     | true, true, true, true, true, true, true, true, true
     | true, true, true, true, true, true, true, true, true
     | true, true, true, true, true, true, true, true, true
     | true, true, true, true, true, true, true, true, true
     | true, true, true, true, true, true, true, true, true
     | true, true, true, true, true, true, true, true, true
     | true, true, true, true, true, true, true, true, true
     | true, true, true, true, true, true, true, true, true
     | true, true, true, true, true, true, true, true, true
     | true, true, true, true, true, true, true, true, true
     | true, true, true, true, true, true, true, true, true
     | true, true, true, true, true, true, true, true, true
     | true, true, true, true, true, true, true, true, true
     | true, true, true, true, true, true, true, true, true
     | true, true, true, true, true, true, true, true, true
     | true, true, true, true, true, true, true, true, true
     | true, true, true, true, true, true, true, true, true
     | true, true, true, true, true, true, true, true, true
     | true, true, true, true, true, true, true, true, true
     | true, true, true, true, true, true, true, true, true
     | true, true, true, true, true, true, true, true, true
     | true, true, true, true, true, true, true, true, true
     | true, true, true, true, true, true, true, true, true
     | true, true, true, true, true, true, true, true, true
     | true, true, true, true, true, true, true, true, true
     | true, true, true, true, true, true, true, true, true
     | false, false, true, false, false, false, true, false, false
     | false, false, false, true, true, false, false, false, false
     | false, false, false, false, true, false, false, false, false
     | false, false, false, false, false, false, true, false, false
     | false, false, false, false, false, false, true, false, false
     | false, false, true, false, false, false, true, false, false
     | false, false, false, true, true, false, false, false, false
     | false, false, false, false, true, false, false, false, false
     | false, false, false, false, false, false, true, false, false
     | false, false, false, false, false, false, true, false, false
     | false, false, true, false, false, false, true, false, false
     | false, false, false, true, true, false, false, false, false
     | false, false, false, false, true, false, false, false, false
     | false, false, false, false, false, false, true, false, false
     | false, false, false, false, false, false, true, false, false
     | false, false, true, false, false, false, true, false, false
     | false, false, false, true, true, false, false, false, false
     | false, false, false, false, true, false, false, false, false
     | false, false, false, false, false, false, true, false, false
     | false, false, false, false, false, false, true, false, false
     | false, false, true, false, false, false, true, false, false
     | false, false, false, true, true, false, false, false, false
     | false, false, false, false, true, false, false, false, false
     | false, false, false, false, false, false, true, false, false
     | false, false, false, false, false, false, true, false, false
     | false, false, true, false, false, false, true, false, false
     | false, false, false, true, true, false, false, false, false
     | false, false, false, false, true, false, false, false, false
     | false, false, false, false, false, false, true, false, false
     | false, false, false, false, false, false, true, false, false
     | false, false, true, false, false, false, true, false, false
     | false, false, false, true, true, false, false, false, false
     | false, false, false, false, true, false, false, false, false
     | false, false, false, false, false, false, true, false, false
     | false, false, false, false, false, false, true, false, false
     | false, false, true, false, false, false, true, false, false
     | false, false, false, true, true, false, false, false, false
     | false, false, false, false, true, false, false, false, false
     | false, false, false, false, false, false, true, false, false
     | false, false, false, false, false, false, true, false, false
     | false, true, false, false, false, false, false, false, true
     | false, true, false, false, false, false, false, false, true
     | false, true, false, false, false, false, false, false, true
     | false, true, false, false, false, false, false, false, true
     | false, true, false, false, false, false, false, false, true
     | false, true, false, false, false, false, false, false, true
     | false, true, false, false, false, false, false, false, true
     | false, true, false, false, false, false, false, false, true
     | false, true, false, false, false, false, false, false, true
     | false, false, false, false, false, false, false, true, false
     | false, false, false, false, false, false, false, true, false
     | false, true, false, false, false, false, false, false, true
     | false, false, false, false, false, false, false, true, false
     | false, false, false, false, false, false, false, true, false
     | false, true, false, false, false, false, false, false, true
     | false, false, false, false, false, false, false, true, false
     | false, false, false, false, false, false, false, true, false
     | false, true, false, false, false, false, false, false, true
     | false, false, false, false, false, false, false, true, false
     | false, false, false, false, false, false, false, true, false
     | false, true, false, false, false, false, false, false, true
     | false, false, false, false, false, false, false, true, false
     | false, false, false, false, false, false, false, true, false
     | false, true, false, false, false, false, false, false, true
     | false, false, false, false, false, false, false, true, false
     | false, false, false, false, false, false, false, true, false
     | false, true, false, false, false, false, false, false, true
     | false, false, false, false, false, false, false, true, false
     | false, false, false, false, false, false, false, true, false
     | false, true, false, false, false, false, false, false, true
     | false, false, false, false, false, false, false, true, false
     | false, false, false, false, false, false, false, true, false |]);
nPE = 361;
pe_src = [1, 33, 3, 1, 34, 3, 1, 1, 34, 35, 34, 3, 3, 1, 33, 36, 37, 36, 3, 3, 3, 2, 38, 1, 2, 39, 1, 2, 2, 39, 40, 39, 1, 1, 2, 38, 41, 42, 41, 1, 1, 1, 3, 43, 4, 3, 44, 4, 3, 3, 44, 45, 44, 4, 4, 3, 43, 46, 47, 46, 4, 4, 4, 4, 48, 5, 4, 49, 5, 4, 4, 49, 50, 49, 5, 5, 4, 48, 51, 52, 51, 5, 5, 5, 5, 53, 6, 28, 5, 54, 6, 28, 5, 5, 54, 55, 54, 6, 28, 6, 28, 5, 53, 56, 57, 56, 6, 28, 6, 28, 6, 28, 6, 58, 23, 21, 6, 59, 23, 21, 6, 6, 59, 60, 59, 23, 21, 23, 21, 6, 58, 61, 62, 61, 23, 21, 23, 21, 23, 21, 7, 63, 4, 9, 7, 64, 4, 9, 7, 7, 64, 65, 64, 4, 9, 4, 9, 7, 63, 66, 67, 66, 4, 9, 4, 9, 4, 9, 8, 68, 2, 11, 8, 8, 69, 2, 11, 8, 8, 8, 69, 70, 69, 2, 11, 8, 2, 11, 8, 8, 68, 71, 72, 71, 2, 11, 8, 2, 11, 8, 2, 11, 8, 9, 73, 17, 32, 9, 73, 17, 32, 10, 74, 9, 16, 21, 10, 74, 9, 16, 21, 11, 75, 9, 11, 75, 9, 12, 76, 10, 12, 76, 10, 13, 77, 10, 13, 77, 10, 14, 78, 7, 14, 78, 7, 15, 79, 11, 15, 79, 11, 16, 80, 20, 18, 16, 80, 20, 18, 17, 81, 25, 27, 82, 25, 27, 17, 81, 25, 27, 83, 13, 31, 19, 84, 11, 29, 85, 11, 29, 19, 84, 11, 29, 86, 22, 21, 87, 12, 30, 11, 88, 12, 30, 11, 21, 87, 12, 30, 11, 89, 26, 23, 90, 14, 91, 14, 23, 90, 14, 92, 14, 13, 25, 93, 32, 94, 32, 25, 93, 32, 95, 15, 19, 27, 96, 23, 31, 97, 23, 31, 27, 96, 23, 31, 98, 13, 29, 99, 25, 22, 100, 25, 22, 29, 99, 25, 22, 101, 8, 31, 102, 19, 103, 19, 31, 102, 19, 104, 24, 25];
pe_dst = [33, 1, 33, 34, 1, 34, 34, 35, 35, 34, 1, 34, 35, 33, 1, 37, 36, 1, 33, 36, 37, 38, 2, 38, 39, 2, 39, 39, 40, 40, 39, 2, 39, 40, 38, 2, 42, 41, 2, 38, 41, 42, 43, 3, 43, 44, 3, 44, 44, 45, 45, 44, 3, 44, 45, 43, 3, 47, 46, 3, 43, 46, 47, 48, 4, 48, 49, 4, 49, 49, 50, 50, 49, 4, 49, 50, 48, 4, 52, 51, 4, 48, 51, 52, 53, 5, 53, 53, 54, 5, 54, 54, 54, 55, 55, 54, 5, 54, 54, 55, 55, 53, 5, 57, 56, 5, 53, 53, 56, 56, 57, 57, 58, 6, 58, 58, 59, 6, 59, 59, 59, 60, 60, 59, 6, 59, 59, 60, 60, 58, 6, 62, 61, 6, 58, 58, 61, 61, 62, 62, 63, 7, 63, 63, 64, 7, 64, 64, 64, 65, 65, 64, 7, 64, 64, 65, 65, 63, 7, 67, 66, 7, 63, 63, 66, 66, 67, 67, 68, 8, 68, 68, 68, 69, 8, 69, 69, 69, 69, 70, 70, 69, 8, 69, 69, 69, 70, 70, 70, 68, 8, 72, 71, 8, 68, 68, 68, 71, 71, 71, 72, 72, 72, 73, 9, 73, 73, 73, 9, 73, 73, 74, 10, 74, 74, 74, 74, 10, 74, 74, 74, 75, 11, 75, 75, 11, 75, 76, 12, 76, 76, 12, 76, 77, 13, 77, 77, 13, 77, 78, 14, 78, 78, 14, 78, 79, 15, 79, 79, 15, 79, 80, 16, 80, 80, 80, 16, 80, 80, 81, 17, 81, 81, 17, 82, 82, 81, 17, 81, 81, 18, 83, 83, 84, 19, 84, 84, 19, 85, 85, 84, 19, 84, 84, 20, 86, 87, 21, 87, 87, 87, 21, 88, 88, 88, 87, 21, 87, 87, 87, 22, 89, 90, 23, 90, 23, 91, 90, 23, 90, 24, 92, 92, 93, 25, 93, 25, 94, 93, 25, 93, 26, 95, 95, 96, 27, 96, 96, 27, 97, 97, 96, 27, 96, 96, 28, 98, 99, 29, 99, 99, 29, 100, 100, 99, 29, 99, 99, 30, 101, 102, 31, 102, 31, 103, 102, 31, 102, 32, 104, 104];
pe_tok = [0, 1, 0, 0, 1, 0, 0, 0, 1, 1, 1, 0, 0, 0, 1, 0, 1, 1, 0, 0, 0, 0, 1, 0, 0, 1, 0, 0, 0, 1, 1, 1, 0, 0, 0, 1, 0, 1, 1, 0, 0, 0, 0, 1, 0, 0, 1, 0, 0, 0, 1, 1, 1, 0, 0, 0, 1, 0, 1, 1, 0, 0, 0, 0, 1, 0, 0, 1, 0, 0, 0, 1, 1, 1, 0, 0, 0, 1, 0, 1, 1, 0, 0, 0, 0, 1, 0, 0, 0, 1, 0, 0, 0, 0, 1, 1, 1, 0, 0, 0, 0, 0, 1, 0, 1, 1, 0, 0, 0, 0, 0, 0, 0, 1, 0, 1, 0, 1, 0, 1, 0, 0, 1, 1, 1, 0, 1, 0, 1, 0, 1, 0, 1, 1, 0, 1, 0, 1, 0, 1, 0, 1, 1, 0, 0, 1, 1, 0, 0, 0, 1, 1, 1, 1, 0, 1, 0, 0, 1, 0, 1, 1, 1, 0, 1, 0, 1, 0, 0, 1, 1, 0, 1, 0, 1, 1, 0, 1, 0, 0, 1, 1, 1, 1, 0, 1, 1, 0, 1, 0, 1, 0, 1, 1, 1, 0, 1, 1, 0, 1, 1, 0, 1, 0, 1, 0, 0, 0, 1, 0, 0, 0, 1, 1, 0, 2, 0, 1, 1, 0, 2, 0, 1, 0, 0, 1, 0, 0, 1, 0, 0, 1, 0, 0, 1, 1, 0, 1, 1, 0, 1, 1, 0, 1, 1, 0, 1, 0, 0, 1, 0, 0, 1, 1, 0, 0, 1, 1, 0, 0, 1, 1, 0, 1, 1, 0, 0, 1, 1, 0, 1, 0, 1, 0, 1, 0, 0, 1, 0, 0, 0, 1, 0, 0, 1, 0, 0, 1, 0, 1, 0, 1, 0, 1, 0, 0, 1, 0, 1, 0, 1, 1, 0, 1, 0, 1, 0, 0, 1, 0, 1, 0, 1, 0, 1, 0, 1, 0, 0, 1, 0, 1, 0, 0, 0, 1, 0, 1, 1, 0, 1, 0, 1, 0, 1, 1, 0, 0, 1, 0, 0, 1, 0, 0, 0, 1, 0, 0, 1, 0, 0, 1, 0, 1, 0, 0, 1, 0, 1, 0, 1];
pe_owner = [1, 1, 1, 1, 1, 1, 1, 1, 1, 1, 1, 1, 1, 1, 1, 1, 1, 1, 1, 1, 1, 2, 2, 2, 2, 2, 2, 2, 2, 2, 2, 2, 2, 2, 2, 2, 2, 2, 2, 2, 2, 2, 3, 3, 3, 3, 3, 3, 3, 3, 3, 3, 3, 3, 3, 3, 3, 3, 3, 3, 3, 3, 3, 4, 4, 4, 4, 4, 4, 4, 4, 4, 4, 4, 4, 4, 4, 4, 4, 4, 4, 4, 4, 4, 5, 5, 5, 5, 5, 5, 5, 5, 5, 5, 5, 5, 5, 5, 5, 5, 5, 5, 5, 5, 5, 5, 5, 5, 5, 5, 5, 5, 6, 6, 6, 6, 6, 6, 6, 6, 6, 6, 6, 6, 6, 6, 6, 6, 6, 6, 6, 6, 6, 6, 6, 6, 6, 6, 6, 6, 7, 7, 7, 7, 7, 7, 7, 7, 7, 7, 7, 7, 7, 7, 7, 7, 7, 7, 7, 7, 7, 7, 7, 7, 7, 7, 7, 7, 8, 8, 8, 8, 8, 8, 8, 8, 8, 8, 8, 8, 8, 8, 8, 8, 8, 8, 8, 8, 8, 8, 8, 8, 8, 8, 8, 8, 8, 8, 8, 8, 8, 8, 8, 9, 9, 9, 9, 9, 9, 9, 9, 10, 10, 10, 10, 10, 10, 10, 10, 10, 10, 11, 11, 11, 11, 11, 11, 12, 12, 12, 12, 12, 12, 13, 13, 13, 13, 13, 13, 14, 14, 14, 14, 14, 14, 15, 15, 15, 15, 15, 15, 16, 16, 16, 16, 16, 16, 16, 16, 17, 17, 17, 17, 17, 17, 17, 17, 17, 17, 17, 18, 18, 18, 19, 19, 19, 19, 19, 19, 19, 19, 19, 19, 19, 20, 20, 21, 21, 21, 21, 21, 21, 21, 21, 21, 21, 21, 21, 21, 21, 22, 22, 23, 23, 23, 23, 23, 23, 23, 23, 24, 24, 24, 25, 25, 25, 25, 25, 25, 25, 25, 26, 26, 26, 27, 27, 27, 27, 27, 27, 27, 27, 27, 27, 27, 28, 28, 29, 29, 29, 29, 29, 29, 29, 29, 29, 29, 29, 30, 30, 31, 31, 31, 31, 31, 31, 31, 31, 32, 32, 32];
pe_guard = array2d(1..361, 1..9,
  [| false, false, true, false, false, false, false, false, false
     | false, false, true, false, false, false, false, false, false
     | false, false, true, false, false, false, false, false, false
     | false, false, false, true, false, false, false, false, false
     | false, false, false, true, false, false, false, false, false
     | false, false, false, true, false, false, false, false, false
     | false, false, false, false, true, false, false, false, false
     | false, false, false, false, true, false, false, false, false
     | false, false, false, false, true, false, false, false, false
     | false, false, false, false, true, false, false, false, false
     | false, false, false, false, true, false, false, false, false
     | false, false, false, false, true, false, false, false, false
     | false, false, false, false, true, false, false, false, false
     | false, false, false, false, false, false, true, false, false
     | false, false, false, false, false, false, true, false, false
     | false, false, false, false, false, false, true, false, false
     | false, false, false, false, false, false, true, false, false
     | false, false, false, false, false, false, true, false, false
     | false, false, false, false, false, false, true, false, false
     | false, false, false, false, false, false, true, false, false
     | false, false, false, false, false, false, true, false, false
     | false, false, true, false, false, false, false, false, false
     | false, false, true, false, false, false, false, false, false
     | false, false, true, false, false, false, false, false, false
     | false, false, false, true, false, false, false, false, false
     | false, false, false, true, false, false, false, false, false
     | false, false, false, true, false, false, false, false, false
     | false, false, false, false, true, false, false, false, false
     | false, false, false, false, true, false, false, false, false
     | false, false, false, false, true, false, false, false, false
     | false, false, false, false, true, false, false, false, false
     | false, false, false, false, true, false, false, false, false
     | false, false, false, false, true, false, false, false, false
     | false, false, false, false, true, false, false, false, false
     | false, false, false, false, false, false, true, false, false
     | false, false, false, false, false, false, true, false, false
     | false, false, false, false, false, false, true, false, false
     | false, false, false, false, false, false, true, false, false
     | false, false, false, false, false, false, true, false, false
     | false, false, false, false, false, false, true, false, false
     | false, false, false, false, false, false, true, false, false
     | false, false, false, false, false, false, true, false, false
     | false, false, true, false, false, false, false, false, false
     | false, false, true, false, false, false, false, false, false
     | false, false, true, false, false, false, false, false, false
     | false, false, false, true, false, false, false, false, false
     | false, false, false, true, false, false, false, false, false
     | false, false, false, true, false, false, false, false, false
     | false, false, false, false, true, false, false, false, false
     | false, false, false, false, true, false, false, false, false
     | false, false, false, false, true, false, false, false, false
     | false, false, false, false, true, false, false, false, false
     | false, false, false, false, true, false, false, false, false
     | false, false, false, false, true, false, false, false, false
     | false, false, false, false, true, false, false, false, false
     | false, false, false, false, false, false, true, false, false
     | false, false, false, false, false, false, true, false, false
     | false, false, false, false, false, false, true, false, false
     | false, false, false, false, false, false, true, false, false
     | false, false, false, false, false, false, true, false, false
     | false, false, false, false, false, false, true, false, false
     | false, false, false, false, false, false, true, false, false
     | false, false, false, false, false, false, true, false, false
     | false, false, true, false, false, false, false, false, false
     | false, false, true, false, false, false, false, false, false
     | false, false, true, false, false, false, false, false, false
     | false, false, false, true, false, false, false, false, false
     | false, false, false, true, false, false, false, false, false
     | false, false, false, true, false, false, false, false, false
     | false, false, false, false, true, false, false, false, false
     | false, false, false, false, true, false, false, false, false
     | false, false, false, false, true, false, false, false, false
     | false, false, false, false, true, false, false, false, false
     | false, false, false, false, true, false, false, false, false
     | false, false, false, false, true, false, false, false, false
     | false, false, false, false, true, false, false, false, false
     | false, false, false, false, false, false, true, false, false
     | false, false, false, false, false, false, true, false, false
     | false, false, false, false, false, false, true, false, false
     | false, false, false, false, false, false, true, false, false
     | false, false, false, false, false, false, true, false, false
     | false, false, false, false, false, false, true, false, false
     | false, false, false, false, false, false, true, false, false
     | false, false, false, false, false, false, true, false, false
     | false, false, true, false, false, false, false, false, false
     | false, false, true, false, false, false, false, false, false
     | false, false, true, false, false, false, false, false, false
     | false, false, true, false, false, false, false, false, false
     | false, false, false, true, false, false, false, false, false
     | false, false, false, true, false, false, false, false, false
     | false, false, false, true, false, false, false, false, false
     | false, false, false, true, false, false, false, false, false
     | false, false, false, false, true, false, false, false, false
     | false, false, false, false, true, false, false, false, false
     | false, false, false, false, true, false, false, false, false
     | false, false, false, false, true, false, false, false, false
     | false, false, false, false, true, false, false, false, false
     | false, false, false, false, true, false, false, false, false
     | false, false, false, false, true, false, false, false, false
     | false, false, false, false, true, false, false, false, false
     | false, false, false, false, true, false, false, false, false
     | false, false, false, false, false, false, true, false, false
     | false, false, false, false, false, false, true, false, false
     | false, false, false, false, false, false, true, false, false
     | false, false, false, false, false, false, true, false, false
     | false, false, false, false, false, false, true, false, false
     | false, false, false, false, false, false, true, false, false
     | false, false, false, false, false, false, true, false, false
     | false, false, false, false, false, false, true, false, false
     | false, false, false, false, false, false, true, false, false
     | false, false, false, false, false, false, true, false, false
     | false, false, false, false, false, false, true, false, false
     | false, false, true, false, false, false, false, false, false
     | false, false, true, false, false, false, false, false, false
     | false, false, true, false, false, false, false, false, false
     | false, false, true, false, false, false, false, false, false
     | false, false, false, true, false, false, false, false, false
     | false, false, false, true, false, false, false, false, false
     | false, false, false, true, false, false, false, false, false
     | false, false, false, true, false, false, false, false, false
     | false, false, false, false, true, false, false, false, false
     | false, false, false, false, true, false, false, false, false
     | false, false, false, false, true, false, false, false, false
     | false, false, false, false, true, false, false, false, false
     | false, false, false, false, true, false, false, false, false
     | false, false, false, false, true, false, false, false, false
     | false, false, false, false, true, false, false, false, false
     | false, false, false, false, true, false, false, false, false
     | false, false, false, false, true, false, false, false, false
     | false, false, false, false, false, false, true, false, false
     | false, false, false, false, false, false, true, false, false
     | false, false, false, false, false, false, true, false, false
     | false, false, false, false, false, false, true, false, false
     | false, false, false, false, false, false, true, false, false
     | false, false, false, false, false, false, true, false, false
     | false, false, false, false, false, false, true, false, false
     | false, false, false, false, false, false, true, false, false
     | false, false, false, false, false, false, true, false, false
     | false, false, false, false, false, false, true, false, false
     | false, false, false, false, false, false, true, false, false
     | false, false, true, false, false, false, false, false, false
     | false, false, true, false, false, false, false, false, false
     | false, false, true, false, false, false, false, false, false
     | false, false, true, false, false, false, false, false, false
     | false, false, false, true, false, false, false, false, false
     | false, false, false, true, false, false, false, false, false
     | false, false, false, true, false, false, false, false, false
     | false, false, false, true, false, false, false, false, false
     | false, false, false, false, true, false, false, false, false
     | false, false, false, false, true, false, false, false, false
     | false, false, false, false, true, false, false, false, false
     | false, false, false, false, true, false, false, false, false
     | false, false, false, false, true, false, false, false, false
     | false, false, false, false, true, false, false, false, false
     | false, false, false, false, true, false, false, false, false
     | false, false, false, false, true, false, false, false, false
     | false, false, false, false, true, false, false, false, false
     | false, false, false, false, false, false, true, false, false
     | false, false, false, false, false, false, true, false, false
     | false, false, false, false, false, false, true, false, false
     | false, false, false, false, false, false, true, false, false
     | false, false, false, false, false, false, true, false, false
     | false, false, false, false, false, false, true, false, false
     | false, false, false, false, false, false, true, false, false
     | false, false, false, false, false, false, true, false, false
     | false, false, false, false, false, false, true, false, false
     | false, false, false, false, false, false, true, false, false
     | false, false, false, false, false, false, true, false, false
     | false, false, true, false, false, false, false, false, false
     | false, false, true, false, false, false, false, false, false
     | false, false, true, false, false, false, false, false, false
     | false, false, true, false, false, false, false, false, false
     | false, false, true, false, false, false, false, false, false
     | false, false, false, true, false, false, false, false, false
     | false, false, false, true, false, false, false, false, false
     | false, false, false, true, false, false, false, false, false
     | false, false, false, true, false, false, false, false, false
     | false, false, false, true, false, false, false, false, false
     | false, false, false, false, true, false, false, false, false
     | false, false, false, false, true, false, false, false, false
     | false, false, false, false, true, false, false, false, false
     | false, false, false, false, true, false, false, false, false
     | false, false, false, false, true, false, false, false, false
     | false, false, false, false, true, false, false, false, false
     | false, false, false, false, true, false, false, false, false
     | false, false, false, false, true, false, false, false, false
     | false, false, false, false, true, false, false, false, false
     | false, false, false, false, true, false, false, false, false
     | false, false, false, false, true, false, false, false, false
     | false, false, false, false, false, false, true, false, false
     | false, false, false, false, false, false, true, false, false
     | false, false, false, false, false, false, true, false, false
     | false, false, false, false, false, false, true, false, false
     | false, false, false, false, false, false, true, false, false
     | false, false, false, false, false, false, true, false, false
     | false, false, false, false, false, false, true, false, false
     | false, false, false, false, false, false, true, false, false
     | false, false, false, false, false, false, true, false, false
     | false, false, false, false, false, false, true, false, false
     | false, false, false, false, false, false, true, false, false
     | false, false, false, false, false, false, true, false, false
     | false, false, false, false, false, false, true, false, false
     | false, false, false, false, false, false, true, false, false
     | false, true, false, false, false, false, false, false, false
     | false, true, false, false, false, false, false, false, false
     | false, true, false, false, false, false, false, false, false
     | false, true, false, false, false, false, false, false, false
     | false, false, false, false, false, false, false, false, true
     | false, false, false, false, false, false, false, false, true
     | false, false, false, false, false, false, false, false, true
     | false, false, false, false, false, false, false, false, true
     | false, true, false, false, false, false, false, false, false
     | false, true, false, false, false, false, false, false, false
     | false, true, false, false, false, false, false, false, false
     | false, true, false, false, false, false, false, false, false
     | false, true, false, false, false, false, false, false, false
     | false, false, false, false, false, false, false, false, true
     | false, false, false, false, false, false, false, false, true
     | false, false, false, false, false, false, false, false, true
     | false, false, false, false, false, false, false, false, true
     | false, false, false, false, false, false, false, false, true
     | false, true, false, false, false, false, false, false, false
     | false, true, false, false, false, false, false, false, false
     | false, true, false, false, false, false, false, false, false
     | false, false, false, false, false, false, false, false, true
     | false, false, false, false, false, false, false, false, true
     | false, false, false, false, false, false, false, false, true
     | false, true, false, false, false, false, false, false, false
     | false, true, false, false, false, false, false, false, false
     | false, true, false, false, false, false, false, false, false
     | false, false, false, false, false, false, false, false, true
     | false, false, false, false, false, false, false, false, true
     | false, false, false, false, false, false, false, false, true
     | false, true, false, false, false, false, false, false, false
     | false, true, false, false, false, false, false, false, false
     | false, true, false, false, false, false, false, false, false
     | false, false, false, false, false, false, false, false, true
     | false, false, false, false, false, false, false, false, true
     | false, false, false, false, false, false, false, false, true
     | false, true, false, false, false, false, false, false, false
     | false, true, false, false, false, false, false, false, false
     | false, true, false, false, false, false, false, false, false
     | false, false, false, false, false, false, false, false, true
     | false, false, false, false, false, false, false, false, true
     | false, false, false, false, false, false, false, false, true
     | false, true, false, false, false, false, false, false, false
     | false, true, false, false, false, false, false, false, false
     | false, true, false, false, false, false, false, false, false
     | false, false, false, false, false, false, false, false, true
     | false, false, false, false, false, false, false, false, true
     | false, false, false, false, false, false, false, false, true
     | false, true, false, false, false, false, false, false, false
     | false, true, false, false, false, false, false, false, false
     | false, true, false, false, false, false, false, false, false
     | false, true, false, false, false, false, false, false, false
     | false, false, false, false, false, false, false, false, true
     | false, false, false, false, false, false, false, false, true
     | false, false, false, false, false, false, false, false, true
     | false, false, false, false, false, false, false, false, true
     | false, true, false, false, false, false, false, false, false
     | false, true, false, false, false, false, false, false, false
     | false, true, false, false, false, false, false, false, false
     | false, true, false, false, false, false, false, false, false
     | false, false, false, false, false, false, false, true, false
     | false, false, false, false, false, false, false, true, false
     | false, false, false, false, false, false, false, true, false
     | false, false, false, false, false, false, false, false, true
     | false, false, false, false, false, false, false, false, true
     | false, false, false, false, false, false, false, false, true
     | false, false, false, false, false, false, false, false, true
     | false, false, false, false, false, false, false, true, false
     | false, false, false, false, false, false, false, true, false
     | false, false, false, false, false, false, false, true, false
     | false, true, false, false, false, false, false, false, false
     | false, true, false, false, false, false, false, false, false
     | false, true, false, false, false, false, false, false, false
     | false, true, false, false, false, false, false, false, false
     | false, false, false, false, false, false, false, true, false
     | false, false, false, false, false, false, false, true, false
     | false, false, false, false, false, false, false, true, false
     | false, false, false, false, false, false, false, false, true
     | false, false, false, false, false, false, false, false, true
     | false, false, false, false, false, false, false, false, true
     | false, false, false, false, false, false, false, false, true
     | false, false, false, false, false, false, false, true, false
     | false, false, false, false, false, false, false, true, false
     | false, true, false, false, false, false, false, false, false
     | false, true, false, false, false, false, false, false, false
     | false, true, false, false, false, false, false, false, false
     | false, true, false, false, false, false, false, false, false
     | false, true, false, false, false, false, false, false, false
     | false, false, false, false, false, false, false, true, false
     | false, false, false, false, false, false, false, true, false
     | false, false, false, false, false, false, false, true, false
     | false, false, false, false, false, false, false, true, false
     | false, false, false, false, false, false, false, false, true
     | false, false, false, false, false, false, false, false, true
     | false, false, false, false, false, false, false, false, true
     | false, false, false, false, false, false, false, false, true
     | false, false, false, false, false, false, false, false, true
     | false, false, false, false, false, false, false, true, false
     | false, false, false, false, false, false, false, true, false
     | false, true, false, false, false, false, false, false, false
     | false, true, false, false, false, false, false, false, false
     | false, true, false, false, false, false, false, false, false
     | false, false, false, false, false, false, false, true, false
     | false, false, false, false, false, false, false, true, false
     | false, false, false, false, false, false, false, false, true
     | false, false, false, false, false, false, false, false, true
     | false, false, false, false, false, false, false, false, true
     | false, false, false, false, false, false, false, true, false
     | false, false, false, false, false, false, false, true, false
     | false, false, false, false, false, false, false, true, false
     | false, true, false, false, false, false, false, false, false
     | false, true, false, false, false, false, false, false, false
     | false, true, false, false, false, false, false, false, false
     | false, false, false, false, false, false, false, true, false
     | false, false, false, false, false, false, false, true, false
     | false, false, false, false, false, false, false, false, true
     | false, false, false, false, false, false, false, false, true
     | false, false, false, false, false, false, false, false, true
     | false, false, false, false, false, false, false, true, false
     | false, false, false, false, false, false, false, true, false
     | false, false, false, false, false, false, false, true, false
     | false, true, false, false, false, false, false, false, false
     | false, true, false, false, false, false, false, false, false
     | false, true, false, false, false, false, false, false, false
     | false, true, false, false, false, false, false, false, false
     | false, false, false, false, false, false, false, true, false
     | false, false, false, false, false, false, false, true, false
     | false, false, false, false, false, false, false, true, false
     | false, false, false, false, false, false, false, false, true
     | false, false, false, false, false, false, false, false, true
     | false, false, false, false, false, false, false, false, true
     | false, false, false, false, false, false, false, false, true
     | false, false, false, false, false, false, false, true, false
     | false, false, false, false, false, false, false, true, false
     | false, true, false, false, false, false, false, false, false
     | false, true, false, false, false, false, false, false, false
     | false, true, false, false, false, false, false, false, false
     | false, true, false, false, false, false, false, false, false
     | false, false, false, false, false, false, false, true, false
     | false, false, false, false, false, false, false, true, false
     | false, false, false, false, false, false, false, true, false
     | false, false, false, false, false, false, false, false, true
     | false, false, false, false, false, false, false, false, true
     | false, false, false, false, false, false, false, false, true
     | false, false, false, false, false, false, false, false, true
     | false, false, false, false, false, false, false, true, false
     | false, false, false, false, false, false, false, true, false
     | false, true, false, false, false, false, false, false, false
     | false, true, false, false, false, false, false, false, false
     | false, true, false, false, false, false, false, false, false
     | false, false, false, false, false, false, false, true, false
     | false, false, false, false, false, false, false, true, false
     | false, false, false, false, false, false, false, false, true
     | false, false, false, false, false, false, false, false, true
     | false, false, false, false, false, false, false, false, true
     | false, false, false, false, false, false, false, true, false
     | false, false, false, false, false, false, false, true, false
     | false, false, false, false, false, false, false, true, false |]);
pe_owner2 = [1, 1, 1, 1, 1, 1, 1, 1, 1, 1, 1, 1, 1, 1, 1, 1, 1, 1, 1, 1, 1, 2, 2, 2, 2, 2, 2, 2, 2, 2, 2, 2, 2, 2, 2, 2, 2, 2, 2, 2, 2, 2, 3, 3, 3, 3, 3, 3, 3, 3, 3, 3, 3, 3, 3, 3, 3, 3, 3, 3, 3, 3, 3, 4, 4, 4, 4, 4, 4, 4, 4, 4, 4, 4, 4, 4, 4, 4, 4, 4, 4, 4, 4, 4, 5, 5, 5, 5, 5, 5, 5, 5, 5, 5, 5, 5, 5, 5, 5, 5, 5, 5, 5, 5, 5, 5, 5, 5, 5, 5, 5, 5, 6, 6, 6, 6, 6, 6, 6, 6, 6, 6, 6, 6, 6, 6, 6, 6, 6, 6, 6, 6, 6, 6, 6, 6, 6, 6, 6, 6, 7, 7, 7, 7, 7, 7, 7, 7, 7, 7, 7, 7, 7, 7, 7, 7, 7, 7, 7, 7, 7, 7, 7, 7, 7, 7, 7, 7, 8, 8, 8, 8, 8, 8, 8, 8, 8, 8, 8, 8, 8, 8, 8, 8, 8, 8, 8, 8, 8, 8, 8, 8, 8, 8, 8, 8, 8, 8, 8, 8, 8, 8, 8, 9, 9, 9, 9, 9, 9, 9, 9, 10, 10, 10, 10, 10, 10, 10, 10, 10, 10, 11, 11, 11, 11, 11, 11, 12, 12, 12, 12, 12, 12, 13, 13, 13, 13, 13, 13, 14, 14, 14, 14, 14, 14, 15, 15, 15, 15, 15, 15, 16, 16, 16, 16, 16, 16, 16, 16, 17, 17, 17, 17, 17, 17, 17, 17, 17, 17, 17, 18, 18, 18, 19, 19, 19, 19, 19, 19, 19, 19, 19, 19, 19, 20, 20, 21, 21, 21, 21, 21, 21, 21, 21, 21, 21, 21, 21, 21, 21, 22, 22, 23, 23, 23, 23, 23, 23, 23, 23, 24, 24, 24, 25, 25, 25, 25, 25, 25, 25, 25, 26, 26, 26, 27, 27, 27, 27, 27, 27, 27, 27, 27, 27, 27, 28, 28, 29, 29, 29, 29, 29, 29, 29, 29, 29, 29, 29, 30, 30, 31, 31, 31, 31, 31, 31, 31, 31, 32, 32, 32];
pe_guard2 = array2d(1..361, 1..9,
  [| true, true, true, true, true, true, true, true, true
     | true, true, true, true, true, true, true, true, true
     | true, true, true, true, true, true, true, true, true
     | true, true, true, true, true, true, true, true, true
     | true, true, true, true, true, true, true, true, true
     | true, true, true, true, true, true, true, true, true
     | true, true, true, true, true, true, true, true, true
     | true, true, true, true, true, true, true, true, true
     | true, true, true, true, true, true, true, true, true
     | true, true, true, true, true, true, true, true, true
     | true, true, true, true, true, true, true, true, true
     | true, true, true, true, true, true, true, true, true
     | true, true, true, true, true, true, true, true, true
     | true, true, true, true, true, true, true, true, true
     | true, true, true, true, true, true, true, true, true
     | true, true, true, true, true, true, true, true, true
     | true, true, true, true, true, true, true, true, true
     | true, true, true, true, true, true, true, true, true
     | true, true, true, true, true, true, true, true, true
     | true, true, true, true, true, true, true, true, true
     | true, true, true, true, true, true, true, true, true
     | true, true, true, true, true, true, true, true, true
     | true, true, true, true, true, true, true, true, true
     | true, true, true, true, true, true, true, true, true
     | true, true, true, true, true, true, true, true, true
     | true, true, true, true, true, true, true, true, true
     | true, true, true, true, true, true, true, true, true
     | true, true, true, true, true, true, true, true, true
     | true, true, true, true, true, true, true, true, true
     | true, true, true, true, true, true, true, true, true
     | true, true, true, true, true, true, true, true, true
     | true, true, true, true, true, true, true, true, true
     | true, true, true, true, true, true, true, true, true
     | true, true, true, true, true, true, true, true, true
     | true, true, true, true, true, true, true, true, true
     | true, true, true, true, true, true, true, true, true
     | true, true, true, true, true, true, true, true, true
     | true, true, true, true, true, true, true, true, true
     | true, true, true, true, true, true, true, true, true
     | true, true, true, true, true, true, true, true, true
     | true, true, true, true, true, true, true, true, true
     | true, true, true, true, true, true, true, true, true
     | true, true, true, true, true, true, true, true, true
     | true, true, true, true, true, true, true, true, true
     | true, true, true, true, true, true, true, true, true
     | true, true, true, true, true, true, true, true, true
     | true, true, true, true, true, true, true, true, true
     | true, true, true, true, true, true, true, true, true
     | true, true, true, true, true, true, true, true, true
     | true, true, true, true, true, true, true, true, true
     | true, true, true, true, true, true, true, true, true
     | true, true, true, true, true, true, true, true, true
     | true, true, true, true, true, true, true, true, true
     | true, true, true, true, true, true, true, true, true
     | true, true, true, true, true, true, true, true, true
     | true, true, true, true, true, true, true, true, true
     | true, true, true, true, true, true, true, true, true
     | true, true, true, true, true, true, true, true, true
     | true, true, true, true, true, true, true, true, true
     | true, true, true, true, true, true, true, true, true
     | true, true, true, true, true, true, true, true, true
     | true, true, true, true, true, true, true, true, true
     | true, true, true, true, true, true, true, true, true
     | true, true, true, true, true, true, true, true, true
     | true, true, true, true, true, true, true, true, true
     | true, true, true, true, true, true, true, true, true
     | true, true, true, true, true, true, true, true, true
     | true, true, true, true, true, true, true, true, true
     | true, true, true, true, true, true, true, true, true
     | true, true, true, true, true, true, true, true, true
     | true, true, true, true, true, true, true, true, true
     | true, true, true, true, true, true, true, true, true
     | true, true, true, true, true, true, true, true, true
     | true, true, true, true, true, true, true, true, true
     | true, true, true, true, true, true, true, true, true
     | true, true, true, true, true, true, true, true, true
     | true, true, true, true, true, true, true, true, true
     | true, true, true, true, true, true, true, true, true
     | true, true, true, true, true, true, true, true, true
     | true, true, true, true, true, true, true, true, true
     | true, true, true, true, true, true, true, true, true
     | true, true, true, true, true, true, true, true, true
     | true, true, true, true, true, true, true, true, true
     | true, true, true, true, true, true, true, true, true
     | true, true, true, true, true, true, true, true, true
     | true, true, true, true, true, true, true, true, true
     | true, true, true, true, true, true, true, true, true
     | true, true, true, true, true, true, true, true, true
     | true, true, true, true, true, true, true, true, true
     | true, true, true, true, true, true, true, true, true
     | true, true, true, true, true, true, true, true, true
     | true, true, true, true, true, true, true, true, true
     | true, true, true, true, true, true, true, true, true
     | true, true, true, true, true, true, true, true, true
     | true, true, true, true, true, true, true, true, true
     | true, true, true, true, true, true, true, true, true
     | true, true, true, true, true, true, true, true, true
     | true, true, true, true, true, true, true, true, true
     | true, true, true, true, true, true, true, true, true
     | true, true, true, true, true, true, true, true, true
     | true, true, true, true, true, true, true, true, true
     | true, true, true, true, true, true, true, true, true
     | true, true, true, true, true, true, true, true, true
     | true, true, true, true, true, true, true, true, true
     | true, true, true, true, true, true, true, true, true
     | true, true, true, true, true, true, true, true, true
     | true, true, true, true, true, true, true, true, true
     | true, true, true, true, true, true, true, true, true
     | true, true, true, true, true, true, true, true, true
     | true, true, true, true, true, true, true, true, true
     | true, true, true, true, true, true, true, true, true
     | true, true, true, true, true, true, true, true, true
     | true, true, true, true, true, true, true, true, true
     | true, true, true, true, true, true, true, true, true
     | true, true, true, true, true, true, true, true, true
     | true, true, true, true, true, true, true, true, true
     | true, true, true, true, true, true, true, true, true
     | true, true, true, true, true, true, true, true, true
     | true, true, true, true, true, true, true, true, true
     | true, true, true, true, true, true, true, true, true
     | true, true, true, true, true, true, true, true, true
     | true, true, true, true, true, true, true, true, true
     | true, true, true, true, true, true, true, true, true
     | true, true, true, true, true, true, true, true, true
     | true, true, true, true, true, true, true, true, true
     | true, true, true, true, true, true, true, true, true
     | true, true, true, true, true, true, true, true, true
     | true, true, true, true, true, true, true, true, true
     | true, true, true, true, true, true, true, true, true
     | true, true, true, true, true, true, true, true, true
     | true, true, true, true, true, true, true, true, true
     | true, true, true, true, true, true, true, true, true
     | true, true, true, true, true, true, true, true, true
     | true, true, true, true, true, true, true, true, true
     | true, true, true, true, true, true, true, true, true
     | true, true, true, true, true, true, true, true, true
     | true, true, true, true, true, true, true, true, true
     | true, true, true, true, true, true, true, true, true
     | true, true, true, true, true, true, true, true, true
     | true, true, true, true, true, true, true, true, true
     | true, true, true, true, true, true, true, true, true
     | true, true, true, true, true, true, true, true, true
     | true, true, true, true, true, true, true, true, true
     | true, true, true, true, true, true, true, true, true
     | true, true, true, true, true, true, true, true, true
     | true, true, true, true, true, true, true, true, true
     | true, true, true, true, true, true, true, true, true
     | true, true, true, true, true, true, true, true, true
     | true, true, true, true, true, true, true, true, true
     | true, true, true, true, true, true, true, true, true
     | true, true, true, true, true, true, true, true, true
     | true, true, true, true, true, true, true, true, true
     | true, true, true, true, true, true, true, true, true
     | true, true, true, true, true, true, true, true, true
     | true, true, true, true, true, true, true, true, true
     | true, true, true, true, true, true, true, true, true
     | true, true, true, true, true, true, true, true, true
     | true, true, true, true, true, true, true, true, true
     | true, true, true, true, true, true, true, true, true
     | true, true, true, true, true, true, true, true, true
     | true, true, true, true, true, true, true, true, true
     | true, true, true, true, true, true, true, true, true
     | true, true, true, true, true, true, true, true, true
     | true, true, true, true, true, true, true, true, true
     | true, true, true, true, true, true, true, true, true
     | true, true, true, true, true, true, true, true, true
     | true, true, true, true, true, true, true, true, true
     | true, true, true, true, true, true, true, true, true
     | true, true, true, true, true, true, true, true, true
     | true, true, true, true, true, true, true, true, true
     | true, true, true, true, true, true, true, true, true
     | true, true, true, true, true, true, true, true, true
     | true, true, true, true, true, true, true, true, true
     | true, true, true, true, true, true, true, true, true
     | true, true, true, true, true, true, true, true, true
     | true, true, true, true, true, true, true, true, true
     | true, true, true, true, true, true, true, true, true
     | true, true, true, true, true, true, true, true, true
     | true, true, true, true, true, true, true, true, true
     | true, true, true, true, true, true, true, true, true
     | true, true, true, true, true, true, true, true, true
     | true, true, true, true, true, true, true, true, true
     | true, true, true, true, true, true, true, true, true
     | true, true, true, true, true, true, true, true, true
     | true, true, true, true, true, true, true, true, true
     | true, true, true, true, true, true, true, true, true
     | true, true, true, true, true, true, true, true, true
     | true, true, true, true, true, true, true, true, true
     | true, true, true, true, true, true, true, true, true
     | true, true, true, true, true, true, true, true, true
     | true, true, true, true, true, true, true, true, true
     | true, true, true, true, true, true, true, true, true
     | true, true, true, true, true, true, true, true, true
     | true, true, true, true, true, true, true, true, true
     | true, true, true, true, true, true, true, true, true
     | true, true, true, true, true, true, true, true, true
     | true, true, true, true, true, true, true, true, true
     | true, true, true, true, true, true, true, true, true
     | true, true, true, true, true, true, true, true, true
     | true, true, true, true, true, true, true, true, true
     | true, true, true, true, true, true, true, true, true
     | true, true, true, true, true, true, true, true, true
     | true, true, true, true, true, true, true, true, true
     | true, true, true, true, true, true, true, true, true
     | true, true, true, true, true, true, true, true, true
     | true, true, true, true, true, true, true, true, true
     | true, true, true, true, true, true, true, true, true
     | true, true, true, true, true, true, true, true, true
     | true, true, true, true, true, true, true, true, true
     | true, true, true, true, true, true, true, true, true
     | true, true, true, true, true, true, true, true, true
     | true, true, true, true, true, true, true, true, true
     | true, true, true, true, true, true, true, true, true
     | true, true, true, true, true, true, true, true, true
     | true, true, true, true, true, true, true, true, true
     | true, true, true, true, true, true, true, true, true
     | true, true, true, true, true, true, true, true, true
     | true, true, true, true, true, true, true, true, true
     | true, true, true, true, true, true, true, true, true
     | true, true, true, true, true, true, true, true, true
     | true, true, true, true, true, true, true, true, true
     | true, true, true, true, true, true, true, true, true
     | true, true, true, true, true, true, true, true, true
     | true, true, true, true, true, true, true, true, true
     | true, true, true, true, true, true, true, true, true
     | true, true, true, true, true, true, true, true, true
     | true, true, true, true, true, true, true, true, true
     | true, true, true, true, true, true, true, true, true
     | true, true, true, true, true, true, true, true, true
     | true, true, true, true, true, true, true, true, true
     | true, true, true, true, true, true, true, true, true
     | true, true, true, true, true, true, true, true, true
     | true, true, true, true, true, true, true, true, true
     | true, true, true, true, true, true, true, true, true
     | true, true, true, true, true, true, true, true, true
     | true, true, true, true, true, true, true, true, true
     | true, true, true, true, true, true, true, true, true
     | true, true, true, true, true, true, true, true, true
     | true, true, true, true, true, true, true, true, true
     | true, true, true, true, true, true, true, true, true
     | true, true, true, true, true, true, true, true, true
     | true, true, true, true, true, true, true, true, true
     | true, true, true, true, true, true, true, true, true
     | true, true, true, true, true, true, true, true, true
     | true, true, true, true, true, true, true, true, true
     | true, true, true, true, true, true, true, true, true
     | true, true, true, true, true, true, true, true, true
     | true, true, true, true, true, true, true, true, true
     | true, true, true, true, true, true, true, true, true
     | true, true, true, true, true, true, true, true, true
     | true, true, true, true, true, true, true, true, true
     | true, true, true, true, true, true, true, true, true
     | true, true, true, true, true, true, true, true, true
     | true, true, true, true, true, true, true, true, true
     | true, true, true, true, true, true, true, true, true
     | true, true, true, true, true, true, true, true, true
     | true, true, true, true, true, true, true, true, true
     | true, true, true, true, true, true, true, true, true
     | true, true, true, true, true, true, true, true, true
     | true, true, true, true, true, true, true, true, true
     | true, true, true, true, true, true, true, true, true
     | true, true, true, true, true, true, true, true, true
     | true, true, true, true, true, true, true, true, true
     | true, true, true, true, true, true, true, true, true
     | true, true, true, true, true, true, true, true, true
     | true, true, true, true, true, true, true, true, true
     | true, true, true, true, true, true, true, true, true
     | true, true, true, true, true, true, true, true, true
     | true, true, true, true, true, true, true, true, true
     | true, true, true, true, true, true, true, true, true
     | true, true, true, true, true, true, true, true, true
     | true, true, true, true, true, true, true, true, true
     | true, true, true, true, true, true, true, true, true
     | true, true, true, true, true, true, true, true, true
     | true, true, true, true, true, true, true, true, true
     | true, true, true, true, true, true, true, true, true
     | true, true, true, true, true, true, true, true, true
     | true, true, true, true, true, true, true, true, true
     | true, true, true, true, true, true, true, true, true
     | true, true, true, true, true, true, true, true, true
     | true, true, true, true, true, true, true, true, true
     | true, true, true, true, true, true, true, true, true
     | true, true, true, true, true, true, true, true, true
     | true, true, true, true, true, true, true, true, true
     | true, true, true, true, true, true, true, true, true
     | true, true, true, true, true, true, true, true, true
     | true, true, true, true, true, true, true, true, true
     | true, true, true, true, true, true, true, true, true
     | true, true, true, true, true, true, true, true, true
     | true, true, true, true, true, true, true, true, true
     | true, true, true, true, true, true, true, true, true
     | true, true, true, true, true, true, true, true, true
     | true, true, true, true, true, true, true, true, true
     | true, true, true, true, true, true, true, true, true
     | true, true, true, true, true, true, true, true, true
     | true, true, true, true, true, true, true, true, true
     | true, true, true, true, true, true, true, true, true
     | true, true, true, true, true, true, true, true, true
     | true, true, true, true, true, true, true, true, true
     | true, true, true, true, true, true, true, true, true
     | true, true, true, true, true, true, true, true, true
     | true, true, true, true, true, true, true, true, true
     | true, true, true, true, true, true, true, true, true
     | true, true, true, true, true, true, true, true, true
     | true, true, true, true, true, true, true, true, true
     | true, true, true, true, true, true, true, true, true
     | true, true, true, true, true, true, true, true, true
     | true, true, true, true, true, true, true, true, true
     | true, true, true, true, true, true, true, true, true
     | true, true, true, true, true, true, true, true, true
     | true, true, true, true, true, true, true, true, true
     | true, true, true, true, true, true, true, true, true
     | true, true, true, true, true, true, true, true, true
     | true, true, true, true, true, true, true, true, true
     | true, true, true, true, true, true, true, true, true
     | true, true, true, true, true, true, true, true, true
     | true, true, true, true, true, true, true, true, true
     | true, true, true, true, true, true, true, true, true
     | true, true, true, true, true, true, true, true, true
     | true, true, true, true, true, true, true, true, true
     | true, true, true, true, true, true, true, true, true
     | true, true, true, true, true, true, true, true, true
     | true, true, true, true, true, true, true, true, true
     | true, true, true, true, true, true, true, true, true
     | true, true, true, true, true, true, true, true, true
     | true, true, true, true, true, true, true, true, true
     | true, true, true, true, true, true, true, true, true
     | true, true, true, true, true, true, true, true, true
     | true, true, true, true, true, true, true, true, true
     | true, true, true, true, true, true, true, true, true
     | true, true, true, true, true, true, true, true, true
     | true, true, true, true, true, true, true, true, true
     | true, true, true, true, true, true, true, true, true
     | true, true, true, true, true, true, true, true, true
     | true, true, true, true, true, true, true, true, true
     | true, true, true, true, true, true, true, true, true
     | true, true, true, true, true, true, true, true, true
     | true, true, true, true, true, true, true, true, true
     | true, true, true, true, true, true, true, true, true
     | true, true, true, true, true, true, true, true, true
     | true, true, true, true, true, true, true, true, true
     | true, true, true, true, true, true, true, true, true
     | true, true, true, true, true, true, true, true, true
     | true, true, true, true, true, true, true, true, true
     | true, true, true, true, true, true, true, true, true
     | true, true, true, true, true, true, true, true, true
     | true, true, true, true, true, true, true, true, true
     | true, true, true, true, true, true, true, true, true
     | true, true, true, true, true, true, true, true, true
     | true, true, true, true, true, true, true, true, true
     | true, true, true, true, true, true, true, true, true
     | true, true, true, true, true, true, true, true, true
     | true, true, true, true, true, true, true, true, true
     | true, true, true, true, true, true, true, true, true
     | true, true, true, true, true, true, true, true, true
     | true, true, true, true, true, true, true, true, true
     | true, true, true, true, true, true, true, true, true
     | true, true, true, true, true, true, true, true, true
     | true, true, true, true, true, true, true, true, true
     | true, true, true, true, true, true, true, true, true
     | true, true, true, true, true, true, true, true, true |]);
nPL = 104;
pl_u = [1, 1, 1, 34, 1, 36, 1, 2, 2, 2, 39, 2, 41, 2, 3, 3, 3, 44, 3, 46, 3, 4, 4, 4, 49, 4, 51, 4, 5, 5, 5, 54, 5, 56, 5, 6, 6, 6, 59, 6, 61, 6, 7, 7, 7, 64, 7, 66, 7, 8, 8, 8, 69, 8, 71, 8, 9, 9, 10, 10, 11, 11, 12, 12, 13, 13, 14, 14, 15, 15, 16, 16, 17, 17, 17, 18, 19, 19, 19, 20, 21, 21, 21, 22, 23, 23, 23, 24, 25, 25, 25, 26, 27, 27, 27, 28, 29, 29, 29, 30, 31, 31, 31, 32];
pl_v = [33, 34, 34, 35, 33, 37, 36, 38, 39, 39, 40, 38, 42, 41, 43, 44, 44, 45, 43, 47, 46, 48, 49, 49, 50, 48, 52, 51, 53, 54, 54, 55, 53, 57, 56, 58, 59, 59, 60, 58, 62, 61, 63, 64, 64, 65, 63, 67, 66, 68, 69, 69, 70, 68, 72, 71, 73, 73, 74, 74, 75, 75, 76, 76, 77, 77, 78, 78, 79, 79, 80, 80, 81, 82, 81, 83, 84, 85, 84, 86, 87, 88, 87, 89, 90, 91, 90, 92, 93, 94, 93, 95, 96, 97, 96, 98, 99, 100, 99, 101, 102, 103, 102, 104];
pl_rel = [3, 3, 3, 3, 3, 3, 3, 3, 3, 3, 3, 3, 3, 3, 3, 3, 3, 3, 3, 3, 3, 3, 3, 3, 3, 3, 3, 3, 3, 3, 3, 3, 3, 3, 3, 3, 3, 3, 3, 3, 3, 3, 3, 3, 3, 3, 3, 3, 3, 3, 3, 3, 3, 3, 3, 3, 2, 3, 2, 3, 2, 3, 2, 3, 2, 3, 2, 3, 2, 3, 2, 3, 2, 3, 3, 3, 2, 3, 3, 3, 2, 3, 3, 3, 2, 3, 3, 3, 2, 3, 3, 3, 2, 3, 3, 3, 2, 3, 3, 3, 2, 3, 3, 3];
pl_owner = [1, 1, 1, 1, 1, 1, 1, 2, 2, 2, 2, 2, 2, 2, 3, 3, 3, 3, 3, 3, 3, 4, 4, 4, 4, 4, 4, 4, 5, 5, 5, 5, 5, 5, 5, 6, 6, 6, 6, 6, 6, 6, 7, 7, 7, 7, 7, 7, 7, 8, 8, 8, 8, 8, 8, 8, 9, 9, 10, 10, 11, 11, 12, 12, 13, 13, 14, 14, 15, 15, 16, 16, 17, 17, 17, 18, 19, 19, 19, 20, 21, 21, 21, 22, 23, 23, 23, 24, 25, 25, 25, 26, 27, 27, 27, 28, 29, 29, 29, 30, 31, 31, 31, 32];
pl_guard = array2d(1..104, 1..9,
  [| false, false, true, false, false, false, false, false, false
     | false, false, false, true, false, false, false, false, false
     | false, false, false, false, true, false, false, false, false
     | false, false, false, false, true, false, false, false, false
     | false, false, false, false, false, false, true, false, false
     | false, false, false, false, false, false, true, false, false
     | false, false, false, false, false, false, true, false, false
     | false, false, true, false, false, false, false, false, false
     | false, false, false, true, false, false, false, false, false
     | false, false, false, false, true, false, false, false, false
     | false, false, false, false, true, false, false, false, false
     | false, false, false, false, false, false, true, false, false
     | false, false, false, false, false, false, true, false, false
     | false, false, false, false, false, false, true, false, false
     | false, false, true, false, false, false, false, false, false
     | false, false, false, true, false, false, false, false, false
     | false, false, false, false, true, false, false, false, false
     | false, false, false, false, true, false, false, false, false
     | false, false, false, false, false, false, true, false, false
     | false, false, false, false, false, false, true, false, false
     | false, false, false, false, false, false, true, false, false
     | false, false, true, false, false, false, false, false, false
     | false, false, false, true, false, false, false, false, false
     | false, false, false, false, true, false, false, false, false
     | false, false, false, false, true, false, false, false, false
     | false, false, false, false, false, false, true, false, false
     | false, false, false, false, false, false, true, false, false
     | false, false, false, false, false, false, true, false, false
     | false, false, true, false, false, false, false, false, false
     | false, false, false, true, false, false, false, false, false
     | false, false, false, false, true, false, false, false, false
     | false, false, false, false, true, false, false, false, false
     | false, false, false, false, false, false, true, false, false
     | false, false, false, false, false, false, true, false, false
     | false, false, false, false, false, false, true, false, false
     | false, false, true, false, false, false, false, false, false
     | false, false, false, true, false, false, false, false, false
     | false, false, false, false, true, false, false, false, false
     | false, false, false, false, true, false, false, false, false
     | false, false, false, false, false, false, true, false, false
     | false, false, false, false, false, false, true, false, false
     | false, false, false, false, false, false, true, false, false
     | false, false, true, false, false, false, false, false, false
     | false, false, false, true, false, false, false, false, false
     | false, false, false, false, true, false, false, false, false
     | false, false, false, false, true, false, false, false, false
     | false, false, false, false, false, false, true, false, false
     | false, false, false, false, false, false, true, false, false
     | false, false, false, false, false, false, true, false, false
     | false, false, true, false, false, false, false, false, false
     | false, false, false, true, false, false, false, false, false
     | false, false, false, false, true, false, false, false, false
     | false, false, false, false, true, false, false, false, false
     | false, false, false, false, false, false, true, false, false
     | false, false, false, false, false, false, true, false, false
     | false, false, false, false, false, false, true, false, false
     | false, true, false, false, false, false, false, false, false
     | false, false, false, false, false, false, false, false, true
     | false, true, false, false, false, false, false, false, false
     | false, false, false, false, false, false, false, false, true
     | false, true, false, false, false, false, false, false, false
     | false, false, false, false, false, false, false, false, true
     | false, true, false, false, false, false, false, false, false
     | false, false, false, false, false, false, false, false, true
     | false, true, false, false, false, false, false, false, false
     | false, false, false, false, false, false, false, false, true
     | false, true, false, false, false, false, false, false, false
     | false, false, false, false, false, false, false, false, true
     | false, true, false, false, false, false, false, false, false
     | false, false, false, false, false, false, false, false, true
     | false, true, false, false, false, false, false, false, false
     | false, false, false, false, false, false, false, false, true
     | false, true, false, false, false, false, false, false, false
     | false, false, false, false, false, false, false, true, false
     | false, false, false, false, false, false, false, false, true
     | false, false, false, false, false, false, false, true, false
     | false, true, false, false, false, false, false, false, false
     | false, false, false, false, false, false, false, true, false
     | false, false, false, false, false, false, false, false, true
     | false, false, false, false, false, false, false, true, false
     | false, true, false, false, false, false, false, false, false
     | false, false, false, false, false, false, false, true, false
     | false, false, false, false, false, false, false, false, true
     | false, false, false, false, false, false, false, true, false
     | false, true, false, false, false, false, false, false, false
     | false, false, false, false, false, false, false, true, false
     | false, false, false, false, false, false, false, false, true
     | false, false, false, false, false, false, false, true, false
     | false, true, false, false, false, false, false, false, false
     | false, false, false, false, false, false, false, true, false
     | false, false, false, false, false, false, false, false, true
     | false, false, false, false, false, false, false, true, false
     | false, true, false, false, false, false, false, false, false
     | false, false, false, false, false, false, false, true, false
     | false, false, false, false, false, false, false, false, true
     | false, false, false, false, false, false, false, true, false
     | false, true, false, false, false, false, false, false, false
     | false, false, false, false, false, false, false, true, false
     | false, false, false, false, false, false, false, false, true
     | false, false, false, false, false, false, false, true, false
     | false, true, false, false, false, false, false, false, false
     | false, false, false, false, false, false, false, true, false
     | false, false, false, false, false, false, false, false, true
     | false, false, false, false, false, false, false, true, false |]);

% ---- TDMA communication ----
nCh = 0;
ch_src = [1]; ch_dst = [1]; ch_msgsize = [0]; ch_app = [1];
ch_block = [1]; ch_send = [1]; ch_rec = [1]; ch_slots_needed = [1];
ch_direct_tok = [0];
ch_rounds = array2d(1..1, 0..8, [0, 0, 0, 0, 0, 0, 0, 0, 0]);
tdma_slots = 8;
tdma_cycle_len = 1;
data_per_slot = 32;
max_buf = 4;
ni_capacity = 100000;
nSep = 0;  sep_a = [1];  sep_b = [1];
comm_sil_mode = 0;
comm_actor = [false, false, false, false, false, false, false, false, false, false, false, false, false, false, false, false, false, false, false, false, false, false, false, false, false, false, false, false, false, false, false, false, false, false, false, false, false, false, false, false, false, false, false, false, false, false, false, false, false, false, false, false, false, false, false, false, false, false, false, false, false, false, false, false, false, false, false, false, false, false, false, false, false, false, false, false, false, false, false, false, false, false, false, false, false, false, false, false, false, false, false, false, false, false, false, false, false, false, false, false, false, false, false, false];
