% Generated by SafeDSE build_dzn.py -- do not edit by hand.
% applications : g
% platform     : synthetic_3type
% period mode  : global
% fault model  : random_hw
% cost profile : myklebust2015  [100, 113, 225, 518, 906]

% ---- applications ----
nApps = 1;
n = 45;
app = [1, 1, 1, 1, 1, 1, 1, 1, 1, 1, 1, 1, 1, 1, 1, 1, 1, 1, 1, 1, 1, 1, 1, 1, 1, 1, 1, 1, 1, 1, 1, 1, 1, 1, 1, 1, 1, 1, 1, 1, 1, 1, 1, 1, 1];
nParents = 45;
parent = [1, 2, 3, 4, 5, 6, 7, 8, 9, 10, 11, 12, 13, 14, 15, 16, 17, 18, 19, 20, 21, 22, 23, 24, 25, 26, 27, 28, 29, 30, 31, 32, 33, 34, 35, 36, 37, 38, 39, 40, 41, 42, 43, 44, 45];
copy_index = [0, 0, 0, 0, 0, 0, 0, 0, 0, 0, 0, 0, 0, 0, 0, 0, 0, 0, 0, 0, 0, 0, 0, 0, 0, 0, 0, 0, 0, 0, 0, 0, 0, 0, 0, 0, 0, 0, 0, 0, 0, 0, 0, 0, 0];
node_name = ["g.a0", "g.a1", "g.a2", "g.a3", "g.a4", "g.a5", "g.a6", "g.a7", "g.a8", "g.a9", "g.a10", "g.a11", "g.a12", "g.a13", "g.a14", "g.a15", "g.a16", "g.a17", "g.a18", "g.a19", "g.a0~0", "g.a0~1", "g.a0~2", "g.a1~0", "g.a1~1", "g.a1~2", "g.a2~0", "g.a2~1", "g.a2~2", "g.a3~0", "g.a3~1", "g.a3~2", "g.a4~0", "g.a4~1", "g.a4~2", "g.a5~0", "g.a6~0", "g.a7~0", "g.a8~0", "g.a9~0", "g.a10~0", "g.a12~0", "g.a14~0", "g.a16~0", "g.a18~0"];
parent_name = ["g.a0", "g.a1", "g.a2", "g.a3", "g.a4", "g.a5", "g.a6", "g.a7", "g.a8", "g.a9", "g.a10", "g.a11", "g.a12", "g.a13", "g.a14", "g.a15", "g.a16", "g.a17", "g.a18", "g.a19", "g.a0~0", "g.a0~1", "g.a0~2", "g.a1~0", "g.a1~1", "g.a1~2", "g.a2~0", "g.a2~1", "g.a2~2", "g.a3~0", "g.a3~1", "g.a3~2", "g.a4~0", "g.a4~1", "g.a4~2", "g.a5~0", "g.a6~0", "g.a7~0", "g.a8~0", "g.a9~0", "g.a10~0", "g.a12~0", "g.a14~0", "g.a16~0", "g.a18~0"];
tok = array2d(1..45, 1..45,
  [| 1, -1, 0, -1, -1, -1, -1, -1, -1, -1, -1, -1, -1, -1, -1, -1, -1, -1, -1, -1, 0, 0, 0, -1, -1, -1, 0, 0, 0, -1, -1, -1, -1, -1, -1, -1, -1, -1, -1, -1, -1, -1, -1, -1, -1
       | 0, 1, -1, -1, -1, -1, -1, -1, -1, -1, -1, -1, -1, -1, -1, -1, -1, -1, -1, -1, 0, 0, 0, 0, 0, 0, -1, -1, -1, -1, -1, -1, -1, -1, -1, -1, -1, -1, -1, -1, -1, -1, -1, -1, -1
       | -1, -1, 1, 0, 1, -1, -1, -1, -1, -1, -1, -1, -1, -1, -1, -1, -1, -1, -1, -1, -1, -1, -1, -1, -1, -1, 0, 0, 0, 0, 0, 0, 1, 1, 1, -1, -1, -1, -1, -1, -1, -1, -1, -1, -1
       | -1, -1, -1, 1, -1, -1, -1, -1, -1, -1, -1, -1, -1, -1, -1, -1, 1, 0, -1, -1, -1, -1, -1, -1, -1, -1, -1, -1, -1, 0, 0, 0, -1, -1, -1, -1, -1, -1, -1, -1, -1, -1, -1, 1, -1
       | -1, -1, -1, -1, 1, 0, -1, -1, -1, -1, -1, -1, -1, -1, -1, -1, -1, 0, -1, -1, -1, -1, -1, -1, -1, -1, -1, -1, -1, -1, -1, -1, 0, 0, 0, 0, -1, -1, -1, -1, -1, -1, -1, -1, -1
       | 1, -1, -1, -1, -1, 1, -1, -1, -1, 0, -1, -1, -1, -1, -1, -1, -1, -1, -1, -1, 1, 1, 1, -1, -1, -1, -1, -1, -1, -1, -1, -1, -1, -1, -1, 0, -1, -1, -1, 0, -1, -1, -1, -1, -1
       | -1, 0, -1, -1, -1, -1, 1, -1, -1, -1, -1, -1, -1, -1, -1, -1, -1, -1, -1, -1, -1, -1, -1, 0, 0, 0, -1, -1, -1, -1, -1, -1, -1, -1, -1, -1, 0, -1, -1, -1, -1, -1, -1, -1, -1
       | -1, -1, -1, -1, 0, -1, -1, 1, -1, -1, -1, -1, -1, -1, -1, -1, -1, -1, -1, -1, -1, -1, -1, -1, -1, -1, -1, -1, -1, -1, -1, -1, 0, 0, 0, -1, -1, 0, -1, -1, -1, -1, -1, -1, -1
       | -1, -1, -1, -1, -1, -1, 0, -1, 1, -1, -1, -1, 0, -1, 0, -1, -1, -1, -1, -1, -1, -1, -1, -1, -1, -1, -1, -1, -1, -1, -1, -1, -1, -1, -1, -1, 0, -1, 0, -1, -1, 0, 0, -1, -1
       | -1, -1, -1, -1, -1, -1, -1, 1, -1, 1, 1, -1, -1, -1, -1, -1, -1, -1, -1, -1, -1, -1, -1, -1, -1, -1, -1, -1, -1, -1, -1, -1, -1, -1, -1, -1, -1, 1, -1, 0, 1, -1, -1, -1, -1
       | -1, -1, -1, -1, 0, -1, -1, -1, -1, -1, 1, -1, -1, -1, -1, -1, -1, -1, -1, -1, -1, -1, -1, -1, -1, -1, -1, -1, -1, -1, -1, -1, 0, 0, 0, -1, -1, -1, -1, -1, 0, -1, -1, -1, -1
       | -1, -1, -1, -1, -1, -1, -1, 0, -1, -1, -1, 1, 1, -1, -1, -1, -1, -1, -1, -1, -1, -1, -1, -1, -1, -1, -1, -1, -1, -1, -1, -1, -1, -1, -1, -1, -1, 0, -1, -1, -1, 1, -1, -1, -1
       | -1, -1, -1, -1, -1, -1, -1, -1, -1, -1, -1, 0, 1, -1, -1, -1, -1, -1, -1, -1, -1, -1, -1, -1, -1, -1, -1, -1, -1, -1, -1, -1, -1, -1, -1, -1, -1, -1, -1, -1, -1, 0, -1, -1, -1
       | -1, -1, -1, -1, -1, -1, -1, -1, 1, -1, -1, -1, -1, 1, -1, -1, -1, -1, -1, -1, -1, -1, -1, -1, -1, -1, -1, -1, -1, -1, -1, -1, -1, -1, -1, -1, -1, -1, 1, -1, -1, -1, -1, -1, -1
       | -1, -1, -1, -1, -1, -1, 1, -1, -1, -1, -1, -1, -1, -1, 1, 0, -1, -1, -1, -1, -1, -1, -1, -1, -1, -1, -1, -1, -1, -1, -1, -1, -1, -1, -1, -1, 1, -1, -1, -1, -1, -1, 0, -1, -1
       | -1, -1, -1, -1, -1, -1, -1, -1, -1, -1, -1, -1, -1, -1, -1, 1, -1, -1, 0, -1, -1, -1, -1, -1, -1, -1, -1, -1, -1, -1, -1, -1, -1, -1, -1, -1, -1, -1, -1, -1, -1, -1, -1, -1, 0
       | -1, -1, -1, -1, -1, -1, -1, -1, -1, -1, 0, -1, -1, -1, -1, -1, 1, -1, -1, -1, -1, -1, -1, -1, -1, -1, -1, -1, -1, -1, -1, -1, -1, -1, -1, -1, -1, -1, -1, -1, 0, -1, -1, 0, -1
       | -1, -1, -1, -1, -1, -1, -1, -1, -1, -1, -1, 1, -1, -1, -1, -1, -1, 1, -1, 1, -1, -1, -1, -1, -1, -1, -1, -1, -1, -1, -1, -1, -1, -1, -1, -1, -1, -1, -1, -1, -1, -1, -1, -1, -1
       | -1, -1, -1, -1, -1, -1, -1, -1, -1, -1, -1, -1, -1, 0, -1, -1, -1, -1, 1, 1, -1, -1, -1, -1, -1, -1, -1, -1, -1, -1, -1, -1, -1, -1, -1, -1, -1, -1, -1, -1, -1, -1, -1, -1, 0
       | -1, -1, -1, -1, -1, -1, -1, -1, -1, -1, -1, -1, -1, -1, -1, -1, -1, -1, 0, 1, -1, -1, -1, -1, -1, -1, -1, -1, -1, -1, -1, -1, -1, -1, -1, -1, -1, -1, -1, -1, -1, -1, -1, -1, 0
       | 1, -1, -1, -1, -1, -1, -1, -1, -1, -1, -1, -1, -1, -1, -1, -1, -1, -1, -1, -1, 1, -1, -1, -1, -1, -1, -1, -1, -1, -1, -1, -1, -1, -1, -1, -1, -1, -1, -1, -1, -1, -1, -1, -1, -1
       | 1, -1, -1, -1, -1, -1, -1, -1, -1, -1, -1, -1, -1, -1, -1, -1, -1, -1, -1, -1, -1, 1, 1, -1, -1, -1, -1, -1, -1, -1, -1, -1, -1, -1, -1, -1, -1, -1, -1, -1, -1, -1, -1, -1, -1
       | -1, -1, -1, -1, -1, -1, -1, -1, -1, -1, -1, -1, -1, -1, -1, -1, -1, -1, -1, -1, -1, 1, 1, -1, -1, -1, -1, -1, -1, -1, -1, -1, -1, -1, -1, -1, -1, -1, -1, -1, -1, -1, -1, -1, -1
       | -1, 1, -1, -1, -1, -1, -1, -1, -1, -1, -1, -1, -1, -1, -1, -1, -1, -1, -1, -1, -1, -1, -1, 1, -1, -1, -1, -1, -1, -1, -1, -1, -1, -1, -1, -1, -1, -1, -1, -1, -1, -1, -1, -1, -1
       | -1, 1, -1, -1, -1, -1, -1, -1, -1, -1, -1, -1, -1, -1, -1, -1, -1, -1, -1, -1, -1, -1, -1, -1, 1, 1, -1, -1, -1, -1, -1, -1, -1, -1, -1, -1, -1, -1, -1, -1, -1, -1, -1, -1, -1
       | -1, -1, -1, -1, -1, -1, -1, -1, -1, -1, -1, -1, -1, -1, -1, -1, -1, -1, -1, -1, -1, -1, -1, -1, 1, 1, -1, -1, -1, -1, -1, -1, -1, -1, -1, -1, -1, -1, -1, -1, -1, -1, -1, -1, -1
       | -1, -1, 1, -1, -1, -1, -1, -1, -1, -1, -1, -1, -1, -1, -1, -1, -1, -1, -1, -1, -1, -1, -1, -1, -1, -1, 1, -1, -1, -1, -1, -1, -1, -1, -1, -1, -1, -1, -1, -1, -1, -1, -1, -1, -1
       | -1, -1, 1, -1, -1, -1, -1, -1, -1, -1, -1, -1, -1, -1, -1, -1, -1, -1, -1, -1, -1, -1, -1, -1, -1, -1, -1, 1, 1, -1, -1, -1, -1, -1, -1, -1, -1, -1, -1, -1, -1, -1, -1, -1, -1
       | -1, -1, -1, -1, -1, -1, -1, -1, -1, -1, -1, -1, -1, -1, -1, -1, -1, -1, -1, -1, -1, -1, -1, -1, -1, -1, -1, 1, 1, -1, -1, -1, -1, -1, -1, -1, -1, -1, -1, -1, -1, -1, -1, -1, -1
       | -1, -1, -1, 1, -1, -1, -1, -1, -1, -1, -1, -1, -1, -1, -1, -1, -1, -1, -1, -1, -1, -1, -1, -1, -1, -1, -1, -1, -1, 1, -1, -1, -1, -1, -1, -1, -1, -1, -1, -1, -1, -1, -1, -1, -1
       | -1, -1, -1, 1, -1, -1, -1, -1, -1, -1, -1, -1, -1, -1, -1, -1, -1, -1, -1, -1, -1, -1, -1, -1, -1, -1, -1, -1, -1, -1, 1, 1, -1, -1, -1, -1, -1, -1, -1, -1, -1, -1, -1, -1, -1
       | -1, -1, -1, -1, -1, -1, -1, -1, -1, -1, -1, -1, -1, -1, -1, -1, -1, -1, -1, -1, -1, -1, -1, -1, -1, -1, -1, -1, -1, -1, 1, 1, -1, -1, -1, -1, -1, -1, -1, -1, -1, -1, -1, -1, -1
       | -1, -1, -1, -1, 1, -1, -1, -1, -1, -1, -1, -1, -1, -1, -1, -1, -1, -1, -1, -1, -1, -1, -1, -1, -1, -1, -1, -1, -1, -1, -1, -1, 1, -1, -1, -1, -1, -1, -1, -1, -1, -1, -1, -1, -1
       | -1, -1, -1, -1, 1, -1, -1, -1, -1, -1, -1, -1, -1, -1, -1, -1, -1, -1, -1, -1, -1, -1, -1, -1, -1, -1, -1, -1, -1, -1, -1, -1, -1, 1, 1, -1, -1, -1, -1, -1, -1, -1, -1, -1, -1
       | -1, -1, -1, -1, -1, -1, -1, -1, -1, -1, -1, -1, -1, -1, -1, -1, -1, -1, -1, -1, -1, -1, -1, -1, -1, -1, -1, -1, -1, -1, -1, -1, -1, 1, 1, -1, -1, -1, -1, -1, -1, -1, -1, -1, -1
       | -1, -1, -1, -1, -1, 1, -1, -1, -1, -1, -1, -1, -1, -1, -1, -1, -1, -1, -1, -1, -1, -1, -1, -1, -1, -1, -1, -1, -1, -1, -1, -1, -1, -1, -1, 1, -1, -1, -1, -1, -1, -1, -1, -1, -1
       | -1, -1, -1, -1, -1, -1, 1, -1, -1, -1, -1, -1, -1, -1, -1, -1, -1, -1, -1, -1, -1, -1, -1, -1, -1, -1, -1, -1, -1, -1, -1, -1, -1, -1, -1, -1, 1, -1, -1, -1, -1, -1, -1, -1, -1
       | -1, -1, -1, -1, -1, -1, -1, 1, -1, -1, -1, -1, -1, -1, -1, -1, -1, -1, -1, -1, -1, -1, -1, -1, -1, -1, -1, -1, -1, -1, -1, -1, -1, -1, -1, -1, -1, 1, -1, -1, -1, -1, -1, -1, -1
       | -1, -1, -1, -1, -1, -1, -1, -1, 1, -1, -1, -1, -1, -1, -1, -1, -1, -1, -1, -1, -1, -1, -1, -1, -1, -1, -1, -1, -1, -1, -1, -1, -1, -1, -1, -1, -1, -1, 1, -1, -1, -1, -1, -1, -1
       | -1, -1, -1, -1, -1, -1, -1, -1, -1, 1, -1, -1, -1, -1, -1, -1, -1, -1, -1, -1, -1, -1, -1, -1, -1, -1, -1, -1, -1, -1, -1, -1, -1, -1, -1, -1, -1, -1, -1, 1, -1, -1, -1, -1, -1
       | -1, -1, -1, -1, -1, -1, -1, -1, -1, -1, 1, -1, -1, -1, -1, -1, -1, -1, -1, -1, -1, -1, -1, -1, -1, -1, -1, -1, -1, -1, -1, -1, -1, -1, -1, -1, -1, -1, -1, -1, 1, -1, -1, -1, -1
       | -1, -1, -1, -1, -1, -1, -1, -1, -1, -1, -1, -1, 1, -1, -1, -1, -1, -1, -1, -1, -1, -1, -1, -1, -1, -1, -1, -1, -1, -1, -1, -1, -1, -1, -1, -1, -1, -1, -1, -1, -1, 1, -1, -1, -1
       | -1, -1, -1, -1, -1, -1, -1, -1, -1, -1, -1, -1, -1, -1, 1, -1, -1, -1, -1, -1, -1, -1, -1, -1, -1, -1, -1, -1, -1, -1, -1, -1, -1, -1, -1, -1, -1, -1, -1, -1, -1, -1, 1, -1, -1
       | -1, -1, -1, -1, -1, -1, -1, -1, -1, -1, -1, -1, -1, -1, -1, -1, 1, -1, -1, -1, -1, -1, -1, -1, -1, -1, -1, -1, -1, -1, -1, -1, -1, -1, -1, -1, -1, -1, -1, -1, -1, -1, -1, 1, -1
       | -1, -1, -1, -1, -1, -1, -1, -1, -1, -1, -1, -1, -1, -1, -1, -1, -1, -1, 1, -1, -1, -1, -1, -1, -1, -1, -1, -1, -1, -1, -1, -1, -1, -1, -1, -1, -1, -1, -1, -1, -1, -1, -1, -1, 1 |]);

% ---- platform ----
P = 8;
nFCR = 8;
nCoreTypes = 3;
nModes = 1;
ctype = [1, 1, 1, 2, 2, 2, 3, 3];
fcr = [1, 2, 3, 4, 5, 6, 7, 8];
core_model = ["proc_0", "proc_1", "proc_2"];
max_sil = [4, 4, 4];
core_mem = [64000, 64000, 64000];
partitionable = [false, false, false];
partition_cost = [0, 0, 0];
n_modes_of = [1, 1, 1];
fcr_price = [10, 10, 10, 20, 20, 20, 30, 30];
core_price = array2d(1..3, 1..1,
  [| 10
     | 20
     | 30 |]);
core_power = array2d(1..3, 1..1,
  [| 50
     | 60
     | 70 |]);

% symmetry classes: slots that are genuinely interchangeable
nSymClasses = 0;
symClassSize = [];
maxSymClassSize = 1;
symClass = array2d(1..1, 1..1,
  [| 0 |]);
nInterGroups = 3;
maxInterGroupSize = 3;
interGroupSize = [3, 3, 2];
interGroup = array2d(1..3, 1..3,
  [| 1, 2, 3
     | 4, 5, 6
     | 7, 8, 0 |]);
nTmplGroups = 3;
maxTmplGroupSize = 3;
tmplGroupSize = [3, 3, 2];
tmplGroup = array2d(1..3, 1..3,
  [| 1, 2, 3
     | 4, 5, 6
     | 7, 8, 0 |]);

% ---- timing ----
wcet = array3d(1..45, 1..3, 1..1, [1000000, 1000000, 16, 1000000, 1000000, 9, 11, 5, 1000000, 1000000, 1000000, 12, 9, 1000000, 1000000, 1000000, 1000000, 4, 1000000, 1000000, 4, 1000000, 1000000, 12, 1000000, 9, 8, 11, 1000000, 1000000, 10, 3, 1000000, 1000000, 11, 12, 5, 1000000, 1000000, 1000000, 1000000, 14, 1000000, 13, 1000000, 12, 1000000, 1000000, 12, 1000000, 18, 4, 21, 18, 1000000, 1000000, 10, 12, 5, 1000000, 1000000, 1000000, 16, 1000000, 1000000, 5, 1000000, 1000000, 5, 1000000, 1000000, 9, 1000000, 1000000, 3, 1000000, 1000000, 3, 11, 5, 1000000, 3, 2, 1000000, 3, 2, 1000000, 1000000, 1000000, 12, 1000000, 1000000, 4, 1000000, 1000000, 4, 9, 1000000, 1000000, 3, 1000000, 1000000, 3, 1000000, 1000000, 1000000, 1000000, 1, 1000000, 1000000, 1, 1000000, 1000000, 4, 1000000, 3, 2, 3, 1000000, 1000000, 3, 1, 1000000, 2, 1000000, 1000000, 1000000, 4, 1000000, 4, 1000000, 5, 1000000, 1000000, 3]);
mem_req = [1, 1, 1, 1, 1, 1, 1, 1, 1, 1, 1, 1, 1, 1, 1, 1, 1, 1, 1, 1, 1, 1, 1, 1, 1, 1, 1, 1, 1, 1, 1, 1, 1, 1, 1, 1, 1, 1, 1, 1, 1, 1, 1, 1, 1];

% ---- safety ----
sil_req_parent = [3, 3, 3, 3, 3, 2, 2, 2, 2, 2, 1, 0, 1, 0, 1, 0, 1, 0, 1, 0, 3, 3, 3, 3, 3, 3, 3, 3, 3, 3, 3, 3, 3, 3, 3, 2, 2, 2, 2, 2, 1, 1, 1, 1, 1];
dev_base = [100, 100, 100, 100, 100, 100, 100, 100, 100, 100, 100, 100, 100, 100, 100, 100, 100, 100, 100, 100, 100, 100, 100, 100, 100, 100, 100, 100, 100, 100, 100, 100, 100, 100, 100, 100, 100, 100, 100, 100, 100, 100, 100, 100, 100];
dev_k = array1d(0..4, [100, 113, 225, 518, 906]);
allow_promotion = true;

% ---- design constraints ----
period_ub = [58];
min_wcet = [16, 9, 5, 12, 9, 4, 4, 12, 8, 11, 3, 11, 5, 14, 13, 12, 12, 4, 10, 5, 16, 5, 5, 9, 3, 3, 5, 2, 2, 12, 4, 4, 9, 3, 3, 1, 1, 4, 2, 3, 1, 2, 4, 4, 3];
min_procs = [4];
period_mode_partitioned = false;

% ---- latency ----
nLatCon = 0;
lat_src = [];
lat_dst = [];
lat_rho = [];
lat_ub  = [];

% ---- safety patterns: guarded superposition ----
nPat = 5;
pat_name = ["none", "low_sil_doer_checker", "two_of_two_high_sil", "high_sil_isolated_checker", "mixed_sil_doer_checker"];
pat_recurring = [0, 2, 2, 2, 3];
pat_allowed = array2d(1..45, 1..5,
  [| false, false, true, true, true
     | false, false, true, true, true
     | false, false, true, true, true
     | false, false, true, true, true
     | false, false, true, true, true
     | false, true, false, false, false
     | false, true, false, false, false
     | false, true, false, false, false
     | false, true, false, false, false
     | false, true, false, false, false
     | true, true, false, false, false
     | true, false, false, false, false
     | true, true, false, false, false
     | true, false, false, false, false
     | true, true, false, false, false
     | true, false, false, false, false
     | true, true, false, false, false
     | true, false, false, false, false
     | true, true, false, false, false
     | true, false, false, false, false
     | false, false, true, true, true
     | false, false, true, true, true
     | false, false, true, true, true
     | false, false, true, true, true
     | false, false, true, true, true
     | false, false, true, true, true
     | false, false, true, true, true
     | false, false, true, true, true
     | false, false, true, true, true
     | false, false, true, true, true
     | false, false, true, true, true
     | false, false, true, true, true
     | false, false, true, true, true
     | false, false, true, true, true
     | false, false, true, true, true
     | false, true, false, false, false
     | false, true, false, false, false
     | false, true, false, false, false
     | false, true, false, false, false
     | false, true, false, false, false
     | true, true, false, false, false
     | true, true, false, false, false
     | true, true, false, false, false
     | true, true, false, false, false
     | true, true, false, false, false |]);
par_owner = [1, 2, 3, 4, 5, 6, 7, 8, 9, 10, 11, 12, 13, 14, 15, 16, 17, 18, 19, 20, 1, 1, 1, 2, 2, 2, 3, 3, 3, 4, 4, 4, 5, 5, 5, 6, 7, 8, 9, 10, 11, 13, 15, 17, 19];
node_owner = [1, 2, 3, 4, 5, 6, 7, 8, 9, 10, 11, 12, 13, 14, 15, 16, 17, 18, 19, 20, 1, 1, 1, 2, 2, 2, 3, 3, 3, 4, 4, 4, 5, 5, 5, 6, 7, 8, 9, 10, 11, 13, 15, 17, 19];
owner_node = [1, 2, 3, 4, 5, 6, 7, 8, 9, 10, 11, 12, 13, 14, 15, 16, 17, 18, 19, 20, 1, 1, 1, 2, 2, 2, 3, 3, 3, 4, 4, 4, 5, 5, 5, 6, 7, 8, 9, 10, 11, 13, 15, 17, 19];
node_guard = array2d(1..45, 1..5,
  [| true, true, true, true, true
     | true, true, true, true, true
     | true, true, true, true, true
     | true, true, true, true, true
     | true, true, true, true, true
     | true, true, true, true, true
     | true, true, true, true, true
     | true, true, true, true, true
     | true, true, true, true, true
     | true, true, true, true, true
     | true, true, true, true, true
     | true, true, true, true, true
     | true, true, true, true, true
     | true, true, true, true, true
     | true, true, true, true, true
     | true, true, true, true, true
     | true, true, true, true, true
     | true, true, true, true, true
     | true, true, true, true, true
     | true, true, true, true, true
     | false, false, true, false, false
     | false, false, false, true, true
     | false, false, false, false, true
     | false, false, true, false, false
     | false, false, false, true, true
     | false, false, false, false, true
     | false, false, true, false, false
     | false, false, false, true, true
     | false, false, false, false, true
     | false, false, true, false, false
     | false, false, false, true, true
     | false, false, false, false, true
     | false, false, true, false, false
     | false, false, false, true, true
     | false, false, false, false, true
     | false, true, false, false, false
     | false, true, false, false, false
     | false, true, false, false, false
     | false, true, false, false, false
     | false, true, false, false, false
     | false, true, false, false, false
     | false, true, false, false, false
     | false, true, false, false, false
     | false, true, false, false, false
     | false, true, false, false, false |]);
nPE = 113;
pe_src = [1, 21, 2, 6, 1, 22, 2, 6, 1, 1, 22, 23, 22, 2, 6, 2, 6, 2, 24, 7, 2, 25, 7, 2, 2, 25, 26, 25, 7, 7, 3, 27, 1, 3, 28, 1, 3, 3, 28, 29, 28, 1, 1, 4, 30, 3, 4, 31, 3, 4, 4, 31, 32, 31, 3, 3, 5, 33, 3, 8, 11, 5, 34, 3, 8, 11, 5, 5, 34, 35, 34, 3, 8, 11, 3, 8, 11, 6, 36, 5, 7, 37, 9, 15, 8, 38, 12, 10, 9, 39, 14, 10, 40, 6, 11, 41, 10, 17, 13, 42, 9, 12, 15, 43, 9, 17, 44, 4, 17, 19, 45, 20, 16];
pe_dst = [21, 1, 21, 21, 22, 1, 22, 22, 22, 23, 23, 22, 1, 22, 22, 23, 23, 24, 2, 24, 25, 2, 25, 25, 26, 26, 25, 2, 25, 26, 27, 3, 27, 28, 3, 28, 28, 29, 29, 28, 3, 28, 29, 30, 4, 30, 31, 4, 31, 31, 32, 32, 31, 4, 31, 32, 33, 5, 33, 33, 33, 34, 5, 34, 34, 34, 34, 35, 35, 34, 5, 34, 34, 34, 35, 35, 35, 36, 6, 36, 37, 7, 37, 37, 38, 8, 38, 38, 39, 9, 39, 40, 10, 40, 41, 11, 41, 41, 42, 13, 42, 42, 43, 15, 43, 44, 17, 44, 44, 45, 19, 45, 45];
pe_tok = [0, 1, 0, 1, 0, 1, 0, 1, 0, 0, 1, 1, 1, 0, 1, 0, 1, 0, 1, 0, 0, 1, 0, 0, 0, 1, 1, 1, 0, 0, 0, 1, 0, 0, 1, 0, 0, 0, 1, 1, 1, 0, 0, 0, 1, 0, 0, 1, 0, 0, 0, 1, 1, 1, 0, 0, 0, 1, 1, 0, 0, 0, 1, 1, 0, 0, 0, 0, 1, 1, 1, 1, 0, 0, 1, 0, 0, 0, 1, 0, 0, 1, 0, 1, 0, 1, 0, 1, 0, 1, 1, 0, 1, 0, 0, 1, 1, 0, 0, 1, 0, 1, 0, 1, 0, 0, 1, 1, 1, 0, 1, 0, 0];
pe_owner = [1, 1, 1, 1, 1, 1, 1, 1, 1, 1, 1, 1, 1, 1, 1, 1, 1, 2, 2, 2, 2, 2, 2, 2, 2, 2, 2, 2, 2, 2, 3, 3, 3, 3, 3, 3, 3, 3, 3, 3, 3, 3, 3, 4, 4, 4, 4, 4, 4, 4, 4, 4, 4, 4, 4, 4, 5, 5, 5, 5, 5, 5, 5, 5, 5, 5, 5, 5, 5, 5, 5, 5, 5, 5, 5, 5, 5, 6, 6, 6, 7, 7, 7, 7, 8, 8, 8, 8, 9, 9, 9, 10, 10, 10, 11, 11, 11, 11, 13, 13, 13, 13, 15, 15, 15, 17, 17, 17, 17, 19, 19, 19, 19];
pe_guard = array2d(1..113, 1..5,
  [| false, false, true, false, false
     | false, false, true, false, false
     | false, false, true, false, false
     | false, false, true, false, false
     | false, false, false, true, false
     | false, false, false, true, false
     | false, false, false, true, false
     | false, false, false, true, false
     | false, false, false, false, true
     | false, false, false, false, true
     | false, false, false, false, true
     | false, false, false, false, true
     | false, false, false, false, true
     | false, false, false, false, true
     | false, false, false, false, true
     | false, false, false, false, true
     | false, false, false, false, true
     | false, false, true, false, false
     | false, false, true, false, false
     | false, false, true, false, false
     | false, false, false, true, false
     | false, false, false, true, false
     | false, false, false, true, false
     | false, false, false, false, true
     | false, false, false, false, true
     | false, false, false, false, true
     | false, false, false, false, true
     | false, false, false, false, true
     | false, false, false, false, true
     | false, false, false, false, true
     | false, false, true, false, false
     | false, false, true, false, false
     | false, false, true, false, false
     | false, false, false, true, false
     | false, false, false, true, false
     | false, false, false, true, false
     | false, false, false, false, true
     | false, false, false, false, true
     | false, false, false, false, true
     | false, false, false, false, true
     | false, false, false, false, true
     | false, false, false, false, true
     | false, false, false, false, true
     | false, false, true, false, false
     | false, false, true, false, false
     | false, false, true, false, false
     | false, false, false, true, false
     | false, false, false, true, false
     | false, false, false, true, false
     | false, false, false, false, true
     | false, false, false, false, true
     | false, false, false, false, true
     | false, false, false, false, true
     | false, false, false, false, true
     | false, false, false, false, true
     | false, false, false, false, true
     | false, false, true, false, false
     | false, false, true, false, false
     | false, false, true, false, false
     | false, false, true, false, false
     | false, false, true, false, false
     | false, false, false, true, false
     | false, false, false, true, false
     | false, false, false, true, false
     | false, false, false, true, false
     | false, false, false, true, false
     | false, false, false, false, true
     | false, false, false, false, true
     | false, false, false, false, true
     | false, false, false, false, true
     | false, false, false, false, true
     | false, false, false, false, true
     | false, false, false, false, true
     | false, false, false, false, true
     | false, false, false, false, true
     | false, false, false, false, true
     | false, false, false, false, true
     | false, true, false, false, false
     | false, true, false, false, false
     | false, true, false, false, false
     | false, true, false, false, false
     | false, true, false, false, false
     | false, true, false, false, false
     | false, true, false, false, false
     | false, true, false, false, false
     | false, true, false, false, false
     | false, true, false, false, false
     | false, true, false, false, false
     | false, true, false, false, false
     | false, true, false, false, false
     | false, true, false, false, false
     | false, true, false, false, false
     | false, true, false, false, false
     | false, true, false, false, false
     | false, true, false, false, false
     | false, true, false, false, false
     | false, true, false, false, false
     | false, true, false, false, false
     | false, true, false, false, false
     | false, true, false, false, false
     | false, true, false, false, false
     | false, true, false, false, false
     | false, true, false, false, false
     | false, true, false, false, false
     | false, true, false, false, false
     | false, true, false, false, false
     | false, true, false, false, false
     | false, true, false, false, false
     | false, true, false, false, false
     | false, true, false, false, false
     | false, true, false, false, false
     | false, true, false, false, false
     | false, true, false, false, false |]);
pe_owner2 = [1, 1, 1, 1, 1, 1, 1, 1, 1, 1, 1, 1, 1, 1, 1, 1, 1, 2, 2, 2, 2, 2, 2, 2, 2, 2, 2, 2, 2, 2, 3, 3, 3, 3, 3, 3, 3, 3, 3, 3, 3, 3, 3, 4, 4, 4, 4, 4, 4, 4, 4, 4, 4, 4, 4, 4, 5, 5, 5, 5, 5, 5, 5, 5, 5, 5, 5, 5, 5, 5, 5, 5, 5, 5, 5, 5, 5, 6, 6, 6, 7, 7, 7, 7, 8, 8, 8, 8, 9, 9, 9, 10, 10, 10, 11, 11, 11, 11, 13, 13, 13, 13, 15, 15, 15, 17, 17, 17, 17, 19, 19, 19, 19];
pe_guard2 = array2d(1..113, 1..5,
  [| true, true, true, true, true
     | true, true, true, true, true
     | true, true, true, true, true
     | true, true, true, true, true
     | true, true, true, true, true
     | true, true, true, true, true
     | true, true, true, true, true
     | true, true, true, true, true
     | true, true, true, true, true
     | true, true, true, true, true
     | true, true, true, true, true
     | true, true, true, true, true
     | true, true, true, true, true
     | true, true, true, true, true
     | true, true, true, true, true
     | true, true, true, true, true
     | true, true, true, true, true
     | true, true, true, true, true
     | true, true, true, true, true
     | true, true, true, true, true
     | true, true, true, true, true
     | true, true, true, true, true
     | true, true, true, true, true
     | true, true, true, true, true
     | true, true, true, true, true
     | true, true, true, true, true
     | true, true, true, true, true
     | true, true, true, true, true
     | true, true, true, true, true
     | true, true, true, true, true
     | true, true, true, true, true
     | true, true, true, true, true
     | true, true, true, true, true
     | true, true, true, true, true
     | true, true, true, true, true
     | true, true, true, true, true
     | true, true, true, true, true
     | true, true, true, true, true
     | true, true, true, true, true
     | true, true, true, true, true
     | true, true, true, true, true
     | true, true, true, true, true
     | true, true, true, true, true
     | true, true, true, true, true
     | true, true, true, true, true
     | true, true, true, true, true
     | true, true, true, true, true
     | true, true, true, true, true
     | true, true, true, true, true
     | true, true, true, true, true
     | true, true, true, true, true
     | true, true, true, true, true
     | true, true, true, true, true
     | true, true, true, true, true
     | true, true, true, true, true
     | true, true, true, true, true
     | true, true, true, true, true
     | true, true, true, true, true
     | true, true, true, true, true
     | true, true, true, true, true
     | true, true, true, true, true
     | true, true, true, true, true
     | true, true, true, true, true
     | true, true, true, true, true
     | true, true, true, true, true
     | true, true, true, true, true
     | true, true, true, true, true
     | true, true, true, true, true
     | true, true, true, true, true
     | true, true, true, true, true
     | true, true, true, true, true
     | true, true, true, true, true
     | true, true, true, true, true
     | true, true, true, true, true
     | true, true, true, true, true
     | true, true, true, true, true
     | true, true, true, true, true
     | true, true, true, true, true
     | true, true, true, true, true
     | true, true, true, true, true
     | true, true, true, true, true
     | true, true, true, true, true
     | true, true, true, true, true
     | true, true, true, true, true
     | true, true, true, true, true
     | true, true, true, true, true
     | true, true, true, true, true
     | true, true, true, true, true
     | true, true, true, true, true
     | true, true, true, true, true
     | true, true, true, true, true
     | true, true, true, true, true
     | true, true, true, true, true
     | true, true, true, true, true
     | true, true, true, true, true
     | true, true, true, true, true
     | true, true, true, true, true
     | true, true, true, true, true
     | true, true, true, true, true
     | true, true, true, true, true
     | true, true, true, true, true
     | true, true, true, true, true
     | true, true, true, true, true
     | true, true, true, true, true
     | true, true, true, true, true
     | true, true, true, true, true
     | true, true, true, true, true
     | true, true, true, true, true
     | true, true, true, true, true
     | true, true, true, true, true
     | true, true, true, true, true
     | true, true, true, true, true
     | true, true, true, true, true |]);
nPL = 30;
pl_u = [1, 1, 1, 22, 2, 2, 2, 25, 3, 3, 3, 28, 4, 4, 4, 31, 5, 5, 5, 34, 6, 7, 8, 9, 10, 11, 13, 15, 17, 19];
pl_v = [21, 22, 22, 23, 24, 25, 25, 26, 27, 28, 28, 29, 30, 31, 31, 32, 33, 34, 34, 35, 36, 37, 38, 39, 40, 41, 42, 43, 44, 45];
pl_rel = [3, 3, 3, 3, 3, 3, 3, 3, 3, 3, 3, 3, 3, 3, 3, 3, 3, 3, 3, 3, 2, 2, 2, 2, 2, 2, 2, 2, 2, 2];
pl_owner = [1, 1, 1, 1, 2, 2, 2, 2, 3, 3, 3, 3, 4, 4, 4, 4, 5, 5, 5, 5, 6, 7, 8, 9, 10, 11, 13, 15, 17, 19];
pl_guard = array2d(1..30, 1..5,
  [| false, false, true, false, false
     | false, false, false, true, false
     | false, false, false, false, true
     | false, false, false, false, true
     | false, false, true, false, false
     | false, false, false, true, false
     | false, false, false, false, true
     | false, false, false, false, true
     | false, false, true, false, false
     | false, false, false, true, false
     | false, false, false, false, true
     | false, false, false, false, true
     | false, false, true, false, false
     | false, false, false, true, false
     | false, false, false, false, true
     | false, false, false, false, true
     | false, false, true, false, false
     | false, false, false, true, false
     | false, false, false, false, true
     | false, false, false, false, true
     | false, true, false, false, false
     | false, true, false, false, false
     | false, true, false, false, false
     | false, true, false, false, false
     | false, true, false, false, false
     | false, true, false, false, false
     | false, true, false, false, false
     | false, true, false, false, false
     | false, true, false, false, false
     | false, true, false, false, false |]);

% ---- TDMA communication ----
nCh = 0;
ch_src = [1]; ch_dst = [1]; ch_msgsize = [0]; ch_app = [1];
ch_block = [1]; ch_send = [1]; ch_rec = [1]; ch_slots_needed = [1];
ch_direct_tok = [0];
ch_rounds = array2d(1..1, 0..8, [0, 0, 0, 0, 0, 0, 0, 0, 0]);
tdma_slots = 8;
tdma_cycle_len = 1;
data_per_slot = 32;
max_buf = 4;
ni_capacity = 100000;
nSep = 0;  sep_a = [1];  sep_b = [1];
comm_sil_mode = 0;
comm_actor = [false, false, false, false, false, false, false, false, false, false, false, false, false, false, false, false, false, false, false, false, false, false, false, false, false, false, false, false, false, false, false, false, false, false, false, false, false, false, false, false, false, false, false, false, false];
