% Generated by SafeDSE build_dzn.py -- do not edit by hand.
% applications : g
% platform     : synthetic_3type
% period mode  : global
% fault model  : random_hw
% cost profile : myklebust2015  [100, 113, 225, 518, 906]

% ---- applications ----
nApps = 1;
n = 83;
app = [1, 1, 1, 1, 1, 1, 1, 1, 1, 1, 1, 1, 1, 1, 1, 1, 1, 1, 1, 1, 1, 1, 1, 1, 1, 1, 1, 1, 1, 1, 1, 1, 1, 1, 1, 1, 1, 1, 1, 1, 1, 1, 1, 1, 1, 1, 1, 1, 1, 1, 1, 1, 1, 1, 1, 1, 1, 1, 1, 1, 1, 1, 1, 1, 1, 1, 1, 1, 1, 1, 1, 1, 1, 1, 1, 1, 1, 1, 1, 1, 1, 1, 1];
nParents = 83;
parent = [1, 2, 3, 4, 5, 6, 7, 8, 9, 10, 11, 12, 13, 14, 15, 16, 17, 18, 19, 20, 21, 22, 23, 24, 25, 26, 27, 28, 29, 30, 31, 32, 33, 34, 35, 36, 37, 38, 39, 40, 41, 42, 43, 44, 45, 46, 47, 48, 49, 50, 51, 52, 53, 54, 55, 56, 57, 58, 59, 60, 61, 62, 63, 64, 65, 66, 67, 68, 69, 70, 71, 72, 73, 74, 75, 76, 77, 78, 79, 80, 81, 82, 83];
copy_index = [0, 0, 0, 0, 0, 0, 0, 0, 0, 0, 0, 0, 0, 0, 0, 0, 0, 0, 0, 0, 0, 0, 0, 0, 0, 0, 0, 0, 0, 0, 0, 0, 0, 0, 0, 0, 0, 0, 0, 0, 0, 0, 0, 0, 0, 0, 0, 0, 0, 0, 0, 0, 0, 0, 0, 0, 0, 0, 0, 0, 0, 0, 0, 0, 0, 0, 0, 0, 0, 0, 0, 0, 0, 0, 0, 0, 0, 0, 0, 0, 0, 0, 0];
node_name = ["g.a0", "g.a1", "g.a2", "g.a3", "g.a4", "g.a5", "g.a6", "g.a7", "g.a8", "g.a9", "g.a10", "g.a11", "g.a12", "g.a13", "g.a14", "g.a15", "g.a16", "g.a17", "g.a18", "g.a19", "g.a20", "g.a21", "g.a22", "g.a23", "g.a24", "g.a25", "g.a0~0", "g.a0~1", "g.a0~2", "g.a0~3", "g.a0~4", "g.a1~0", "g.a1~1", "g.a1~2", "g.a1~3", "g.a1~4", "g.a2~0", "g.a2~1", "g.a2~2", "g.a2~3", "g.a2~4", "g.a3~0", "g.a3~1", "g.a3~2", "g.a3~3", "g.a3~4", "g.a4~0", "g.a4~1", "g.a4~2", "g.a4~3", "g.a4~4", "g.a5~0", "g.a5~1", "g.a5~2", "g.a5~3", "g.a5~4", "g.a6~0", "g.a7~0", "g.a8~0", "g.a9~0", "g.a10~0", "g.a11~0", "g.a12~0", "g.a12~1", "g.a13~0", "g.a14~0", "g.a14~1", "g.a15~0", "g.a16~0", "g.a16~1", "g.a17~0", "g.a18~0", "g.a18~1", "g.a19~0", "g.a20~0", "g.a20~1", "g.a21~0", "g.a22~0", "g.a22~1", "g.a23~0", "g.a24~0", "g.a24~1", "g.a25~0"];
parent_name = ["g.a0", "g.a1", "g.a2", "g.a3", "g.a4", "g.a5", "g.a6", "g.a7", "g.a8", "g.a9", "g.a10", "g.a11", "g.a12", "g.a13", "g.a14", "g.a15", "g.a16", "g.a17", "g.a18", "g.a19", "g.a20", "g.a21", "g.a22", "g.a23", "g.a24", "g.a25", "g.a0~0", "g.a0~1", "g.a0~2", "g.a0~3", "g.a0~4", "g.a1~0", "g.a1~1", "g.a1~2", "g.a1~3", "g.a1~4", "g.a2~0", "g.a2~1", "g.a2~2", "g.a2~3", "g.a2~4", "g.a3~0", "g.a3~1", "g.a3~2", "g.a3~3", "g.a3~4", "g.a4~0", "g.a4~1", "g.a4~2", "g.a4~3", "g.a4~4", "g.a5~0", "g.a5~1", "g.a5~2", "g.a5~3", "g.a5~4", "g.a6~0", "g.a7~0", "g.a8~0", "g.a9~0", "g.a10~0", "g.a11~0", "g.a12~0", "g.a12~1", "g.a13~0", "g.a14~0", "g.a14~1", "g.a15~0", "g.a16~0", "g.a16~1", "g.a17~0", "g.a18~0", "g.a18~1", "g.a19~0", "g.a20~0", "g.a20~1", "g.a21~0", "g.a22~0", "g.a22~1", "g.a23~0", "g.a24~0", "g.a24~1", "g.a25~0"];
tok = array2d(1..83, 1..83,
  [| 1, -1, 0, 0, -1, -1, -1, -1, -1, -1, -1, -1, -1, -1, -1, -1, -1, -1, -1, -1, -1, -1, -1, -1, -1, -1, 0, 0, 0, -1, -1, -1, -1, -1, -1, -1, 0, 0, 0, 0, 0, 0, 0, 0, 0, 0, -1, -1, -1, -1, -1, -1, -1, -1, -1, -1, -1, -1, -1, -1, -1, -1, -1, -1, -1, -1, -1, -1, -1, -1, -1, -1, -1, -1, -1, -1, -1, -1, -1, -1, -1, -1, -1
       | 0, 1, -1, -1, -1, -1, -1, -1, -1, -1, -1, -1, -1, -1, -1, -1, -1, -1, -1, -1, -1, -1, 2, -1, -1, -1, 0, 0, 0, 0, 0, 0, 0, 0, -1, -1, -1, -1, -1, -1, -1, -1, -1, -1, -1, -1, -1, -1, -1, -1, -1, -1, -1, -1, -1, -1, -1, -1, -1, -1, -1, -1, -1, -1, -1, -1, -1, -1, -1, -1, -1, -1, -1, -1, -1, -1, -1, 2, 2, -1, -1, -1, -1
       | -1, -1, 1, -1, 2, -1, -1, -1, -1, -1, -1, -1, -1, -1, -1, -1, -1, -1, -1, -1, -1, -1, -1, -1, -1, -1, -1, -1, -1, -1, -1, -1, -1, -1, -1, -1, 0, 0, 0, -1, -1, -1, -1, -1, -1, -1, 2, 2, 2, 2, 2, -1, -1, -1, -1, -1, -1, -1, -1, -1, -1, -1, -1, -1, -1, -1, -1, -1, -1, -1, -1, -1, -1, -1, -1, -1, -1, -1, -1, -1, -1, -1, -1
       | -1, -1, -1, 1, -1, -1, -1, -1, 0, -1, -1, 0, -1, -1, -1, -1, -1, 1, -1, -1, -1, -1, -1, 0, -1, -1, -1, -1, -1, -1, -1, -1, -1, -1, -1, -1, -1, -1, -1, -1, -1, 0, 0, 0, -1, -1, -1, -1, -1, -1, -1, -1, -1, -1, -1, -1, -1, -1, 0, -1, -1, 0, -1, -1, -1, -1, -1, -1, -1, -1, 1, -1, -1, -1, -1, -1, -1, -1, -1, 0, -1, -1, -1
       | -1, -1, -1, -1, 1, -1, -1, -1, -1, -1, -1, -1, -1, -1, -1, -1, -1, -1, 0, -1, -1, -1, -1, -1, -1, -1, -1, -1, -1, -1, -1, -1, -1, -1, -1, -1, -1, -1, -1, -1, -1, -1, -1, -1, -1, -1, 0, 0, 0, -1, -1, -1, -1, -1, -1, -1, -1, -1, -1, -1, -1, -1, -1, -1, -1, -1, -1, -1, -1, -1, -1, 0, 0, -1, -1, -1, -1, -1, -1, -1, -1, -1, -1
       | -1, 0, -1, -1, -1, 1, -1, -1, -1, -1, -1, -1, -1, -1, -1, -1, -1, -1, -1, -1, -1, -1, -1, -1, -1, -1, -1, -1, -1, -1, -1, 0, 0, 0, 0, 0, -1, -1, -1, -1, -1, -1, -1, -1, -1, -1, -1, -1, -1, -1, -1, 0, 0, 0, -1, -1, -1, -1, -1, -1, -1, -1, -1, -1, -1, -1, -1, -1, -1, -1, -1, -1, -1, -1, -1, -1, -1, -1, -1, -1, -1, -1, -1
       | -1, -1, -1, -1, 0, -1, 1, -1, -1, -1, -1, -1, 0, -1, -1, -1, -1, -1, -1, -1, -1, -1, -1, -1, -1, -1, -1, -1, -1, -1, -1, -1, -1, -1, -1, -1, -1, -1, -1, -1, -1, -1, -1, -1, -1, -1, 0, 0, 0, 0, 0, -1, -1, -1, -1, -1, 0, -1, -1, -1, -1, -1, 0, 0, -1, -1, -1, -1, -1, -1, -1, -1, -1, -1, -1, -1, -1, -1, -1, -1, -1, -1, -1
       | -1, 0, -1, -1, -1, -1, -1, 1, -1, -1, -1, -1, -1, -1, -1, -1, -1, -1, -1, -1, -1, -1, -1, -1, -1, -1, -1, -1, -1, -1, -1, 0, 0, 0, 0, 0, -1, -1, -1, -1, -1, -1, -1, -1, -1, -1, -1, -1, -1, -1, -1, -1, -1, -1, -1, -1, -1, 0, -1, -1, -1, -1, -1, -1, -1, -1, -1, -1, -1, -1, -1, -1, -1, -1, -1, -1, -1, -1, -1, -1, -1, -1, -1
       | -1, -1, -1, -1, -1, -1, -1, 1, 1, -1, -1, -1, -1, -1, -1, -1, -1, -1, 1, -1, -1, -1, -1, -1, -1, -1, -1, -1, -1, -1, -1, -1, -1, -1, -1, -1, -1, -1, -1, -1, -1, -1, -1, -1, -1, -1, -1, -1, -1, -1, -1, -1, -1, -1, -1, -1, -1, 1, 0, -1, -1, -1, -1, -1, -1, -1, -1, -1, -1, -1, -1, 1, 1, -1, -1, -1, -1, -1, -1, -1, -1, -1, -1
       | -1, -1, -1, -1, -1, -1, -1, 0, -1, 1, -1, -1, -1, -1, 0, -1, -1, -1, -1, -1, -1, -1, -1, -1, -1, -1, -1, -1, -1, -1, -1, -1, -1, -1, -1, -1, -1, -1, -1, -1, -1, -1, -1, -1, -1, -1, -1, -1, -1, -1, -1, -1, -1, -1, -1, -1, -1, 0, -1, 0, -1, -1, -1, -1, -1, 0, 0, -1, -1, -1, -1, -1, -1, -1, -1, -1, -1, -1, -1, -1, -1, -1, -1
       | -1, -1, -1, -1, -1, -1, -1, -1, -1, 1, 1, -1, -1, -1, -1, -1, -1, -1, -1, -1, -1, -1, 2, -1, -1, -1, -1, -1, -1, -1, -1, -1, -1, -1, -1, -1, -1, -1, -1, -1, -1, -1, -1, -1, -1, -1, -1, -1, -1, -1, -1, -1, -1, -1, -1, -1, -1, -1, -1, 1, 0, -1, -1, -1, -1, -1, -1, -1, -1, -1, -1, -1, -1, -1, -1, -1, -1, 2, 2, -1, -1, -1, -1
       | -1, 1, -1, -1, -1, -1, 2, -1, -1, -1, -1, 1, -1, -1, -1, -1, -1, -1, -1, -1, -1, -1, -1, -1, -1, -1, -1, -1, -1, -1, -1, 1, 1, 1, 1, 1, -1, -1, -1, -1, -1, -1, -1, -1, -1, -1, -1, -1, -1, -1, -1, -1, -1, -1, -1, -1, 2, -1, -1, -1, -1, 0, -1, -1, -1, -1, -1, -1, -1, -1, -1, -1, -1, -1, -1, -1, -1, -1, -1, -1, -1, -1, -1
       | -1, -1, -1, -1, -1, -1, -1, -1, -1, -1, -1, -1, 1, -1, -1, 0, -1, -1, -1, 1, -1, -1, -1, -1, -1, -1, -1, -1, -1, -1, -1, -1, -1, -1, -1, -1, -1, -1, -1, -1, -1, -1, -1, -1, -1, -1, -1, -1, -1, -1, -1, -1, -1, -1, -1, -1, -1, -1, -1, -1, -1, -1, 0, -1, -1, -1, -1, 0, -1, -1, -1, -1, -1, 1, -1, -1, -1, -1, -1, -1, -1, -1, -1
       | -1, -1, -1, -1, -1, -1, 1, -1, -1, -1, -1, -1, -1, 1, -1, -1, -1, -1, -1, -1, -1, -1, -1, -1, -1, -1, -1, -1, -1, -1, -1, -1, -1, -1, -1, -1, -1, -1, -1, -1, -1, -1, -1, -1, -1, -1, -1, -1, -1, -1, -1, -1, -1, -1, -1, -1, 1, -1, -1, -1, -1, -1, -1, -1, -1, -1, -1, -1, -1, -1, -1, -1, -1, -1, -1, -1, -1, -1, -1, -1, -1, -1, -1
       | -1, -1, -1, -1, -1, -1, -1, -1, -1, -1, -1, -1, -1, -1, 1, -1, -1, 0, -1, -1, -1, -1, -1, -1, -1, -1, -1, -1, -1, -1, -1, -1, -1, -1, -1, -1, -1, -1, -1, -1, -1, -1, -1, -1, -1, -1, -1, -1, -1, -1, -1, -1, -1, -1, -1, -1, -1, -1, -1, -1, -1, -1, -1, -1, -1, 0, -1, -1, -1, -1, 0, -1, -1, -1, -1, -1, -1, -1, -1, -1, -1, -1, -1
       | -1, -1, -1, -1, -1, 0, -1, -1, -1, -1, -1, -1, -1, -1, -1, 1, -1, -1, -1, -1, -1, -1, -1, -1, -1, -1, -1, -1, -1, -1, -1, -1, -1, -1, -1, -1, -1, -1, -1, -1, -1, -1, -1, -1, -1, -1, -1, -1, -1, -1, -1, 0, 0, 0, 0, 0, -1, -1, -1, -1, -1, -1, -1, -1, -1, -1, -1, -1, -1, -1, -1, -1, -1, -1, -1, -1, -1, -1, -1, -1, -1, -1, -1
       | -1, -1, -1, -1, -1, -1, -1, -1, -1, -1, 0, -1, -1, -1, -1, -1, 1, -1, -1, -1, -1, -1, -1, -1, -1, -1, -1, -1, -1, -1, -1, -1, -1, -1, -1, -1, -1, -1, -1, -1, -1, -1, -1, -1, -1, -1, -1, -1, -1, -1, -1, -1, -1, -1, -1, -1, -1, -1, -1, -1, 0, -1, -1, -1, -1, -1, -1, -1, 0, -1, -1, -1, -1, -1, -1, -1, -1, -1, -1, -1, -1, -1, -1
       | -1, -1, -1, -1, -1, -1, -1, -1, -1, -1, -1, -1, -1, 0, -1, -1, -1, 1, -1, -1, -1, -1, 1, -1, -1, -1, -1, -1, -1, -1, -1, -1, -1, -1, -1, -1, -1, -1, -1, -1, -1, -1, -1, -1, -1, -1, -1, -1, -1, -1, -1, -1, -1, -1, -1, -1, -1, -1, -1, -1, -1, -1, -1, -1, 0, -1, -1, -1, -1, -1, -1, -1, -1, -1, -1, -1, -1, 1, 1, -1, -1, -1, -1
       | -1, -1, -1, -1, -1, -1, -1, -1, -1, -1, -1, -1, -1, -1, -1, -1, -1, -1, 1, -1, 1, -1, -1, -1, -1, 0, -1, -1, -1, -1, -1, -1, -1, -1, -1, -1, -1, -1, -1, -1, -1, -1, -1, -1, -1, -1, -1, -1, -1, -1, -1, -1, -1, -1, -1, -1, -1, -1, -1, -1, -1, -1, -1, -1, -1, -1, -1, -1, -1, -1, -1, 0, -1, -1, 1, 1, -1, -1, -1, -1, -1, -1, 0
       | -1, -1, -1, -1, -1, -1, -1, -1, -1, -1, -1, -1, -1, -1, -1, -1, -1, -1, -1, 1, -1, 0, -1, -1, -1, -1, -1, -1, -1, -1, -1, -1, -1, -1, -1, -1, -1, -1, -1, -1, -1, -1, -1, -1, -1, -1, -1, -1, -1, -1, -1, -1, -1, -1, -1, -1, -1, -1, -1, -1, -1, -1, -1, -1, -1, -1, -1, -1, -1, -1, -1, -1, -1, -1, -1, -1, 0, -1, -1, -1, -1, -1, -1
       | -1, -1, -1, -1, -1, -1, -1, -1, -1, -1, -1, -1, -1, -1, -1, -1, -1, -1, -1, 0, 1, -1, -1, -1, -1, -1, -1, -1, -1, -1, -1, -1, -1, -1, -1, -1, -1, -1, -1, -1, -1, -1, -1, -1, -1, -1, -1, -1, -1, -1, -1, -1, -1, -1, -1, -1, -1, -1, -1, -1, -1, -1, -1, -1, -1, -1, -1, -1, -1, -1, -1, -1, -1, 0, 0, -1, -1, -1, -1, -1, -1, -1, -1
       | -1, -1, -1, -1, -1, -1, -1, -1, -1, 0, -1, -1, -1, -1, -1, -1, -1, -1, -1, -1, -1, 1, -1, -1, -1, -1, -1, -1, -1, -1, -1, -1, -1, -1, -1, -1, -1, -1, -1, -1, -1, -1, -1, -1, -1, -1, -1, -1, -1, -1, -1, -1, -1, -1, -1, -1, -1, -1, -1, 0, -1, -1, -1, -1, -1, -1, -1, -1, -1, -1, -1, -1, -1, -1, -1, -1, -1, -1, -1, -1, -1, -1, -1
       | -1, -1, -1, -1, -1, -1, -1, -1, -1, -1, -1, -1, -1, -1, -1, -1, -1, -1, -1, 0, -1, -1, 1, -1, -1, -1, -1, -1, -1, -1, -1, -1, -1, -1, -1, -1, -1, -1, -1, -1, -1, -1, -1, -1, -1, -1, -1, -1, -1, -1, -1, -1, -1, -1, -1, -1, -1, -1, -1, -1, -1, -1, -1, -1, -1, -1, -1, -1, -1, -1, -1, -1, -1, 0, -1, -1, -1, 0, -1, -1, -1, -1, -1
       | -1, -1, -1, -1, -1, -1, -1, -1, -1, -1, 0, -1, -1, -1, -1, -1, 0, -1, -1, -1, -1, -1, -1, 1, -1, -1, -1, -1, -1, -1, -1, -1, -1, -1, -1, -1, -1, -1, -1, -1, -1, -1, -1, -1, -1, -1, -1, -1, -1, -1, -1, -1, -1, -1, -1, -1, -1, -1, -1, -1, 0, -1, -1, -1, -1, -1, -1, -1, 0, 0, -1, -1, -1, -1, -1, -1, -1, -1, -1, -1, -1, -1, -1
       | -1, -1, -1, -1, -1, -1, 0, -1, -1, -1, -1, -1, -1, -1, -1, -1, -1, -1, -1, -1, -1, -1, -1, -1, 1, -1, -1, -1, -1, -1, -1, -1, -1, -1, -1, -1, -1, -1, -1, -1, -1, -1, -1, -1, -1, -1, -1, -1, -1, -1, -1, -1, -1, -1, -1, -1, 0, -1, -1, -1, -1, -1, -1, -1, -1, -1, -1, -1, -1, -1, -1, -1, -1, -1, -1, -1, -1, -1, -1, -1, 0, -1, -1
       | -1, -1, -1, -1, -1, -1, -1, -1, -1, -1, -1, -1, -1, -1, -1, -1, -1, -1, -1, -1, -1, -1, 1, -1, 1, 1, -1, -1, -1, -1, -1, -1, -1, -1, -1, -1, -1, -1, -1, -1, -1, -1, -1, -1, -1, -1, -1, -1, -1, -1, -1, -1, -1, -1, -1, -1, -1, -1, -1, -1, -1, -1, -1, -1, -1, -1, -1, -1, -1, -1, -1, -1, -1, -1, -1, -1, -1, 1, 1, -1, 1, 1, -1
       | 1, -1, -1, -1, -1, -1, -1, -1, -1, -1, -1, -1, -1, -1, -1, -1, -1, -1, -1, -1, -1, -1, -1, -1, -1, -1, 1, -1, -1, -1, -1, -1, -1, -1, -1, -1, -1, -1, -1, -1, -1, -1, -1, -1, -1, -1, -1, -1, -1, -1, -1, -1, -1, -1, -1, -1, -1, -1, -1, -1, -1, -1, -1, -1, -1, -1, -1, -1, -1, -1, -1, -1, -1, -1, -1, -1, -1, -1, -1, -1, -1, -1, -1
       | 1, -1, -1, -1, -1, -1, -1, -1, -1, -1, -1, -1, -1, -1, -1, -1, -1, -1, -1, -1, -1, -1, -1, -1, -1, -1, -1, 1, 1, -1, -1, -1, -1, -1, -1, -1, -1, -1, -1, -1, -1, -1, -1, -1, -1, -1, -1, -1, -1, -1, -1, -1, -1, -1, -1, -1, -1, -1, -1, -1, -1, -1, -1, -1, -1, -1, -1, -1, -1, -1, -1, -1, -1, -1, -1, -1, -1, -1, -1, -1, -1, -1, -1
       | -1, -1, -1, -1, -1, -1, -1, -1, -1, -1, -1, -1, -1, -1, -1, -1, -1, -1, -1, -1, -1, -1, -1, -1, -1, -1, -1, 1, 1, -1, -1, -1, -1, -1, -1, -1, -1, -1, -1, -1, -1, -1, -1, -1, -1, -1, -1, -1, -1, -1, -1, -1, -1, -1, -1, -1, -1, -1, -1, -1, -1, -1, -1, -1, -1, -1, -1, -1, -1, -1, -1, -1, -1, -1, -1, -1, -1, -1, -1, -1, -1, -1, -1
       | 1, -1, -1, -1, -1, -1, -1, -1, -1, -1, -1, -1, -1, -1, -1, -1, -1, -1, -1, -1, -1, -1, -1, -1, -1, -1, -1, -1, -1, 1, 0, -1, -1, -1, -1, -1, -1, -1, -1, -1, -1, -1, -1, -1, -1, -1, -1, -1, -1, -1, -1, -1, -1, -1, -1, -1, -1, -1, -1, -1, -1, -1, -1, -1, -1, -1, -1, -1, -1, -1, -1, -1, -1, -1, -1, -1, -1, -1, -1, -1, -1, -1, -1
       | -1, -1, -1, -1, -1, -1, -1, -1, -1, -1, -1, -1, -1, -1, -1, -1, -1, -1, -1, -1, -1, -1, -1, -1, -1, -1, -1, -1, -1, 1, 1, -1, -1, -1, -1, -1, -1, -1, -1, -1, -1, -1, -1, -1, -1, -1, -1, -1, -1, -1, -1, -1, -1, -1, -1, -1, -1, -1, -1, -1, -1, -1, -1, -1, -1, -1, -1, -1, -1, -1, -1, -1, -1, -1, -1, -1, -1, -1, -1, -1, -1, -1, -1
       | -1, 1, -1, -1, -1, -1, -1, -1, -1, -1, -1, -1, -1, -1, -1, -1, -1, -1, -1, -1, -1, -1, -1, -1, -1, -1, -1, -1, -1, -1, -1, 1, -1, -1, -1, -1, -1, -1, -1, -1, -1, -1, -1, -1, -1, -1, -1, -1, -1, -1, -1, -1, -1, -1, -1, -1, -1, -1, -1, -1, -1, -1, -1, -1, -1, -1, -1, -1, -1, -1, -1, -1, -1, -1, -1, -1, -1, -1, -1, -1, -1, -1, -1
       | -1, 1, -1, -1, -1, -1, -1, -1, -1, -1, -1, -1, -1, -1, -1, -1, -1, -1, -1, -1, -1, -1, -1, -1, -1, -1, -1, -1, -1, -1, -1, -1, 1, 1, -1, -1, -1, -1, -1, -1, -1, -1, -1, -1, -1, -1, -1, -1, -1, -1, -1, -1, -1, -1, -1, -1, -1, -1, -1, -1, -1, -1, -1, -1, -1, -1, -1, -1, -1, -1, -1, -1, -1, -1, -1, -1, -1, -1, -1, -1, -1, -1, -1
       | -1, -1, -1, -1, -1, -1, -1, -1, -1, -1, -1, -1, -1, -1, -1, -1, -1, -1, -1, -1, -1, -1, -1, -1, -1, -1, -1, -1, -1, -1, -1, -1, 1, 1, -1, -1, -1, -1, -1, -1, -1, -1, -1, -1, -1, -1, -1, -1, -1, -1, -1, -1, -1, -1, -1, -1, -1, -1, -1, -1, -1, -1, -1, -1, -1, -1, -1, -1, -1, -1, -1, -1, -1, -1, -1, -1, -1, -1, -1, -1, -1, -1, -1
       | -1, 1, -1, -1, -1, -1, -1, -1, -1, -1, -1, -1, -1, -1, -1, -1, -1, -1, -1, -1, -1, -1, -1, -1, -1, -1, -1, -1, -1, -1, -1, -1, -1, -1, 1, 0, -1, -1, -1, -1, -1, -1, -1, -1, -1, -1, -1, -1, -1, -1, -1, -1, -1, -1, -1, -1, -1, -1, -1, -1, -1, -1, -1, -1, -1, -1, -1, -1, -1, -1, -1, -1, -1, -1, -1, -1, -1, -1, -1, -1, -1, -1, -1
       | -1, -1, -1, -1, -1, -1, -1, -1, -1, -1, -1, -1, -1, -1, -1, -1, -1, -1, -1, -1, -1, -1, -1, -1, -1, -1, -1, -1, -1, -1, -1, -1, -1, -1, 1, 1, -1, -1, -1, -1, -1, -1, -1, -1, -1, -1, -1, -1, -1, -1, -1, -1, -1, -1, -1, -1, -1, -1, -1, -1, -1, -1, -1, -1, -1, -1, -1, -1, -1, -1, -1, -1, -1, -1, -1, -1, -1, -1, -1, -1, -1, -1, -1
       | -1, -1, 1, -1, -1, -1, -1, -1, -1, -1, -1, -1, -1, -1, -1, -1, -1, -1, -1, -1, -1, -1, -1, -1, -1, -1, -1, -1, -1, -1, -1, -1, -1, -1, -1, -1, 1, -1, -1, -1, -1, -1, -1, -1, -1, -1, -1, -1, -1, -1, -1, -1, -1, -1, -1, -1, -1, -1, -1, -1, -1, -1, -1, -1, -1, -1, -1, -1, -1, -1, -1, -1, -1, -1, -1, -1, -1, -1, -1, -1, -1, -1, -1
       | -1, -1, 1, -1, -1, -1, -1, -1, -1, -1, -1, -1, -1, -1, -1, -1, -1, -1, -1, -1, -1, -1, -1, -1, -1, -1, -1, -1, -1, -1, -1, -1, -1, -1, -1, -1, -1, 1, 1, -1, -1, -1, -1, -1, -1, -1, -1, -1, -1, -1, -1, -1, -1, -1, -1, -1, -1, -1, -1, -1, -1, -1, -1, -1, -1, -1, -1, -1, -1, -1, -1, -1, -1, -1, -1, -1, -1, -1, -1, -1, -1, -1, -1
       | -1, -1, -1, -1, -1, -1, -1, -1, -1, -1, -1, -1, -1, -1, -1, -1, -1, -1, -1, -1, -1, -1, -1, -1, -1, -1, -1, -1, -1, -1, -1, -1, -1, -1, -1, -1, -1, 1, 1, -1, -1, -1, -1, -1, -1, -1, -1, -1, -1, -1, -1, -1, -1, -1, -1, -1, -1, -1, -1, -1, -1, -1, -1, -1, -1, -1, -1, -1, -1, -1, -1, -1, -1, -1, -1, -1, -1, -1, -1, -1, -1, -1, -1
       | -1, -1, 1, -1, -1, -1, -1, -1, -1, -1, -1, -1, -1, -1, -1, -1, -1, -1, -1, -1, -1, -1, -1, -1, -1, -1, -1, -1, -1, -1, -1, -1, -1, -1, -1, -1, -1, -1, -1, 1, 0, -1, -1, -1, -1, -1, -1, -1, -1, -1, -1, -1, -1, -1, -1, -1, -1, -1, -1, -1, -1, -1, -1, -1, -1, -1, -1, -1, -1, -1, -1, -1, -1, -1, -1, -1, -1, -1, -1, -1, -1, -1, -1
       | -1, -1, -1, -1, -1, -1, -1, -1, -1, -1, -1, -1, -1, -1, -1, -1, -1, -1, -1, -1, -1, -1, -1, -1, -1, -1, -1, -1, -1, -1, -1, -1, -1, -1, -1, -1, -1, -1, -1, 1, 1, -1, -1, -1, -1, -1, -1, -1, -1, -1, -1, -1, -1, -1, -1, -1, -1, -1, -1, -1, -1, -1, -1, -1, -1, -1, -1, -1, -1, -1, -1, -1, -1, -1, -1, -1, -1, -1, -1, -1, -1, -1, -1
       | -1, -1, -1, 1, -1, -1, -1, -1, -1, -1, -1, -1, -1, -1, -1, -1, -1, -1, -1, -1, -1, -1, -1, -1, -1, -1, -1, -1, -1, -1, -1, -1, -1, -1, -1, -1, -1, -1, -1, -1, -1, 1, -1, -1, -1, -1, -1, -1, -1, -1, -1, -1, -1, -1, -1, -1, -1, -1, -1, -1, -1, -1, -1, -1, -1, -1, -1, -1, -1, -1, -1, -1, -1, -1, -1, -1, -1, -1, -1, -1, -1, -1, -1
       | -1, -1, -1, 1, -1, -1, -1, -1, -1, -1, -1, -1, -1, -1, -1, -1, -1, -1, -1, -1, -1, -1, -1, -1, -1, -1, -1, -1, -1, -1, -1, -1, -1, -1, -1, -1, -1, -1, -1, -1, -1, -1, 1, 1, -1, -1, -1, -1, -1, -1, -1, -1, -1, -1, -1, -1, -1, -1, -1, -1, -1, -1, -1, -1, -1, -1, -1, -1, -1, -1, -1, -1, -1, -1, -1, -1, -1, -1, -1, -1, -1, -1, -1
       | -1, -1, -1, -1, -1, -1, -1, -1, -1, -1, -1, -1, -1, -1, -1, -1, -1, -1, -1, -1, -1, -1, -1, -1, -1, -1, -1, -1, -1, -1, -1, -1, -1, -1, -1, -1, -1, -1, -1, -1, -1, -1, 1, 1, -1, -1, -1, -1, -1, -1, -1, -1, -1, -1, -1, -1, -1, -1, -1, -1, -1, -1, -1, -1, -1, -1, -1, -1, -1, -1, -1, -1, -1, -1, -1, -1, -1, -1, -1, -1, -1, -1, -1
       | -1, -1, -1, 1, -1, -1, -1, -1, -1, -1, -1, -1, -1, -1, -1, -1, -1, -1, -1, -1, -1, -1, -1, -1, -1, -1, -1, -1, -1, -1, -1, -1, -1, -1, -1, -1, -1, -1, -1, -1, -1, -1, -1, -1, 1, 0, -1, -1, -1, -1, -1, -1, -1, -1, -1, -1, -1, -1, -1, -1, -1, -1, -1, -1, -1, -1, -1, -1, -1, -1, -1, -1, -1, -1, -1, -1, -1, -1, -1, -1, -1, -1, -1
       | -1, -1, -1, -1, -1, -1, -1, -1, -1, -1, -1, -1, -1, -1, -1, -1, -1, -1, -1, -1, -1, -1, -1, -1, -1, -1, -1, -1, -1, -1, -1, -1, -1, -1, -1, -1, -1, -1, -1, -1, -1, -1, -1, -1, 1, 1, -1, -1, -1, -1, -1, -1, -1, -1, -1, -1, -1, -1, -1, -1, -1, -1, -1, -1, -1, -1, -1, -1, -1, -1, -1, -1, -1, -1, -1, -1, -1, -1, -1, -1, -1, -1, -1
       | -1, -1, -1, -1, 1, -1, -1, -1, -1, -1, -1, -1, -1, -1, -1, -1, -1, -1, -1, -1, -1, -1, -1, -1, -1, -1, -1, -1, -1, -1, -1, -1, -1, -1, -1, -1, -1, -1, -1, -1, -1, -1, -1, -1, -1, -1, 1, -1, -1, -1, -1, -1, -1, -1, -1, -1, -1, -1, -1, -1, -1, -1, -1, -1, -1, -1, -1, -1, -1, -1, -1, -1, -1, -1, -1, -1, -1, -1, -1, -1, -1, -1, -1
       | -1, -1, -1, -1, 1, -1, -1, -1, -1, -1, -1, -1, -1, -1, -1, -1, -1, -1, -1, -1, -1, -1, -1, -1, -1, -1, -1, -1, -1, -1, -1, -1, -1, -1, -1, -1, -1, -1, -1, -1, -1, -1, -1, -1, -1, -1, -1, 1, 1, -1, -1, -1, -1, -1, -1, -1, -1, -1, -1, -1, -1, -1, -1, -1, -1, -1, -1, -1, -1, -1, -1, -1, -1, -1, -1, -1, -1, -1, -1, -1, -1, -1, -1
       | -1, -1, -1, -1, -1, -1, -1, -1, -1, -1, -1, -1, -1, -1, -1, -1, -1, -1, -1, -1, -1, -1, -1, -1, -1, -1, -1, -1, -1, -1, -1, -1, -1, -1, -1, -1, -1, -1, -1, -1, -1, -1, -1, -1, -1, -1, -1, 1, 1, -1, -1, -1, -1, -1, -1, -1, -1, -1, -1, -1, -1, -1, -1, -1, -1, -1, -1, -1, -1, -1, -1, -1, -1, -1, -1, -1, -1, -1, -1, -1, -1, -1, -1
       | -1, -1, -1, -1, 1, -1, -1, -1, -1, -1, -1, -1, -1, -1, -1, -1, -1, -1, -1, -1, -1, -1, -1, -1, -1, -1, -1, -1, -1, -1, -1, -1, -1, -1, -1, -1, -1, -1, -1, -1, -1, -1, -1, -1, -1, -1, -1, -1, -1, 1, 0, -1, -1, -1, -1, -1, -1, -1, -1, -1, -1, -1, -1, -1, -1, -1, -1, -1, -1, -1, -1, -1, -1, -1, -1, -1, -1, -1, -1, -1, -1, -1, -1
       | -1, -1, -1, -1, -1, -1, -1, -1, -1, -1, -1, -1, -1, -1, -1, -1, -1, -1, -1, -1, -1, -1, -1, -1, -1, -1, -1, -1, -1, -1, -1, -1, -1, -1, -1, -1, -1, -1, -1, -1, -1, -1, -1, -1, -1, -1, -1, -1, -1, 1, 1, -1, -1, -1, -1, -1, -1, -1, -1, -1, -1, -1, -1, -1, -1, -1, -1, -1, -1, -1, -1, -1, -1, -1, -1, -1, -1, -1, -1, -1, -1, -1, -1
       | -1, -1, -1, -1, -1, 1, -1, -1, -1, -1, -1, -1, -1, -1, -1, -1, -1, -1, -1, -1, -1, -1, -1, -1, -1, -1, -1, -1, -1, -1, -1, -1, -1, -1, -1, -1, -1, -1, -1, -1, -1, -1, -1, -1, -1, -1, -1, -1, -1, -1, -1, 1, -1, -1, -1, -1, -1, -1, -1, -1, -1, -1, -1, -1, -1, -1, -1, -1, -1, -1, -1, -1, -1, -1, -1, -1, -1, -1, -1, -1, -1, -1, -1
       | -1, -1, -1, -1, -1, 1, -1, -1, -1, -1, -1, -1, -1, -1, -1, -1, -1, -1, -1, -1, -1, -1, -1, -1, -1, -1, -1, -1, -1, -1, -1, -1, -1, -1, -1, -1, -1, -1, -1, -1, -1, -1, -1, -1, -1, -1, -1, -1, -1, -1, -1, -1, 1, 1, -1, -1, -1, -1, -1, -1, -1, -1, -1, -1, -1, -1, -1, -1, -1, -1, -1, -1, -1, -1, -1, -1, -1, -1, -1, -1, -1, -1, -1
       | -1, -1, -1, -1, -1, -1, -1, -1, -1, -1, -1, -1, -1, -1, -1, -1, -1, -1, -1, -1, -1, -1, -1, -1, -1, -1, -1, -1, -1, -1, -1, -1, -1, -1, -1, -1, -1, -1, -1, -1, -1, -1, -1, -1, -1, -1, -1, -1, -1, -1, -1, -1, 1, 1, -1, -1, -1, -1, -1, -1, -1, -1, -1, -1, -1, -1, -1, -1, -1, -1, -1, -1, -1, -1, -1, -1, -1, -1, -1, -1, -1, -1, -1
       | -1, -1, -1, -1, -1, 1, -1, -1, -1, -1, -1, -1, -1, -1, -1, -1, -1, -1, -1, -1, -1, -1, -1, -1, -1, -1, -1, -1, -1, -1, -1, -1, -1, -1, -1, -1, -1, -1, -1, -1, -1, -1, -1, -1, -1, -1, -1, -1, -1, -1, -1, -1, -1, -1, 1, 0, -1, -1, -1, -1, -1, -1, -1, -1, -1, -1, -1, -1, -1, -1, -1, -1, -1, -1, -1, -1, -1, -1, -1, -1, -1, -1, -1
       | -1, -1, -1, -1, -1, -1, -1, -1, -1, -1, -1, -1, -1, -1, -1, -1, -1, -1, -1, -1, -1, -1, -1, -1, -1, -1, -1, -1, -1, -1, -1, -1, -1, -1, -1, -1, -1, -1, -1, -1, -1, -1, -1, -1, -1, -1, -1, -1, -1, -1, -1, -1, -1, -1, 1, 1, -1, -1, -1, -1, -1, -1, -1, -1, -1, -1, -1, -1, -1, -1, -1, -1, -1, -1, -1, -1, -1, -1, -1, -1, -1, -1, -1
       | -1, -1, -1, -1, -1, -1, 1, -1, -1, -1, -1, -1, -1, -1, -1, -1, -1, -1, -1, -1, -1, -1, -1, -1, -1, -1, -1, -1, -1, -1, -1, -1, -1, -1, -1, -1, -1, -1, -1, -1, -1, -1, -1, -1, -1, -1, -1, -1, -1, -1, -1, -1, -1, -1, -1, -1, 1, -1, -1, -1, -1, -1, -1, -1, -1, -1, -1, -1, -1, -1, -1, -1, -1, -1, -1, -1, -1, -1, -1, -1, -1, -1, -1
       | -1, -1, -1, -1, -1, -1, -1, 1, -1, -1, -1, -1, -1, -1, -1, -1, -1, -1, -1, -1, -1, -1, -1, -1, -1, -1, -1, -1, -1, -1, -1, -1, -1, -1, -1, -1, -1, -1, -1, -1, -1, -1, -1, -1, -1, -1, -1, -1, -1, -1, -1, -1, -1, -1, -1, -1, -1, 1, -1, -1, -1, -1, -1, -1, -1, -1, -1, -1, -1, -1, -1, -1, -1, -1, -1, -1, -1, -1, -1, -1, -1, -1, -1
       | -1, -1, -1, -1, -1, -1, -1, -1, 1, -1, -1, -1, -1, -1, -1, -1, -1, -1, -1, -1, -1, -1, -1, -1, -1, -1, -1, -1, -1, -1, -1, -1, -1, -1, -1, -1, -1, -1, -1, -1, -1, -1, -1, -1, -1, -1, -1, -1, -1, -1, -1, -1, -1, -1, -1, -1, -1, -1, 1, -1, -1, -1, -1, -1, -1, -1, -1, -1, -1, -1, -1, -1, -1, -1, -1, -1, -1, -1, -1, -1, -1, -1, -1
       | -1, -1, -1, -1, -1, -1, -1, -1, -1, 1, -1, -1, -1, -1, -1, -1, -1, -1, -1, -1, -1, -1, -1, -1, -1, -1, -1, -1, -1, -1, -1, -1, -1, -1, -1, -1, -1, -1, -1, -1, -1, -1, -1, -1, -1, -1, -1, -1, -1, -1, -1, -1, -1, -1, -1, -1, -1, -1, -1, 1, -1, -1, -1, -1, -1, -1, -1, -1, -1, -1, -1, -1, -1, -1, -1, -1, -1, -1, -1, -1, -1, -1, -1
       | -1, -1, -1, -1, -1, -1, -1, -1, -1, -1, 1, -1, -1, -1, -1, -1, -1, -1, -1, -1, -1, -1, -1, -1, -1, -1, -1, -1, -1, -1, -1, -1, -1, -1, -1, -1, -1, -1, -1, -1, -1, -1, -1, -1, -1, -1, -1, -1, -1, -1, -1, -1, -1, -1, -1, -1, -1, -1, -1, -1, 1, -1, -1, -1, -1, -1, -1, -1, -1, -1, -1, -1, -1, -1, -1, -1, -1, -1, -1, -1, -1, -1, -1
       | -1, -1, -1, -1, -1, -1, -1, -1, -1, -1, -1, 1, -1, -1, -1, -1, -1, -1, -1, -1, -1, -1, -1, -1, -1, -1, -1, -1, -1, -1, -1, -1, -1, -1, -1, -1, -1, -1, -1, -1, -1, -1, -1, -1, -1, -1, -1, -1, -1, -1, -1, -1, -1, -1, -1, -1, -1, -1, -1, -1, -1, 1, -1, -1, -1, -1, -1, -1, -1, -1, -1, -1, -1, -1, -1, -1, -1, -1, -1, -1, -1, -1, -1
       | -1, -1, -1, -1, -1, -1, -1, -1, -1, -1, -1, -1, 1, -1, -1, -1, -1, -1, -1, -1, -1, -1, -1, -1, -1, -1, -1, -1, -1, -1, -1, -1, -1, -1, -1, -1, -1, -1, -1, -1, -1, -1, -1, -1, -1, -1, -1, -1, -1, -1, -1, -1, -1, -1, -1, -1, -1, -1, -1, -1, -1, -1, 1, -1, -1, -1, -1, -1, -1, -1, -1, -1, -1, -1, -1, -1, -1, -1, -1, -1, -1, -1, -1
       | -1, -1, -1, -1, -1, -1, -1, -1, -1, -1, -1, -1, 1, -1, -1, -1, -1, -1, -1, -1, -1, -1, -1, -1, -1, -1, -1, -1, -1, -1, -1, -1, -1, -1, -1, -1, -1, -1, -1, -1, -1, -1, -1, -1, -1, -1, -1, -1, -1, -1, -1, -1, -1, -1, -1, -1, -1, -1, -1, -1, -1, -1, -1, 1, -1, -1, -1, -1, -1, -1, -1, -1, -1, -1, -1, -1, -1, -1, -1, -1, -1, -1, -1
       | -1, -1, -1, -1, -1, -1, -1, -1, -1, -1, -1, -1, -1, 1, -1, -1, -1, -1, -1, -1, -1, -1, -1, -1, -1, -1, -1, -1, -1, -1, -1, -1, -1, -1, -1, -1, -1, -1, -1, -1, -1, -1, -1, -1, -1, -1, -1, -1, -1, -1, -1, -1, -1, -1, -1, -1, -1, -1, -1, -1, -1, -1, -1, -1, 1, -1, -1, -1, -1, -1, -1, -1, -1, -1, -1, -1, -1, -1, -1, -1, -1, -1, -1
       | -1, -1, -1, -1, -1, -1, -1, -1, -1, -1, -1, -1, -1, -1, 1, -1, -1, -1, -1, -1, -1, -1, -1, -1, -1, -1, -1, -1, -1, -1, -1, -1, -1, -1, -1, -1, -1, -1, -1, -1, -1, -1, -1, -1, -1, -1, -1, -1, -1, -1, -1, -1, -1, -1, -1, -1, -1, -1, -1, -1, -1, -1, -1, -1, -1, 1, -1, -1, -1, -1, -1, -1, -1, -1, -1, -1, -1, -1, -1, -1, -1, -1, -1
       | -1, -1, -1, -1, -1, -1, -1, -1, -1, -1, -1, -1, -1, -1, 1, -1, -1, -1, -1, -1, -1, -1, -1, -1, -1, -1, -1, -1, -1, -1, -1, -1, -1, -1, -1, -1, -1, -1, -1, -1, -1, -1, -1, -1, -1, -1, -1, -1, -1, -1, -1, -1, -1, -1, -1, -1, -1, -1, -1, -1, -1, -1, -1, -1, -1, -1, 1, -1, -1, -1, -1, -1, -1, -1, -1, -1, -1, -1, -1, -1, -1, -1, -1
       | -1, -1, -1, -1, -1, -1, -1, -1, -1, -1, -1, -1, -1, -1, -1, 1, -1, -1, -1, -1, -1, -1, -1, -1, -1, -1, -1, -1, -1, -1, -1, -1, -1, -1, -1, -1, -1, -1, -1, -1, -1, -1, -1, -1, -1, -1, -1, -1, -1, -1, -1, -1, -1, -1, -1, -1, -1, -1, -1, -1, -1, -1, -1, -1, -1, -1, -1, 1, -1, -1, -1, -1, -1, -1, -1, -1, -1, -1, -1, -1, -1, -1, -1
       | -1, -1, -1, -1, -1, -1, -1, -1, -1, -1, -1, -1, -1, -1, -1, -1, 1, -1, -1, -1, -1, -1, -1, -1, -1, -1, -1, -1, -1, -1, -1, -1, -1, -1, -1, -1, -1, -1, -1, -1, -1, -1, -1, -1, -1, -1, -1, -1, -1, -1, -1, -1, -1, -1, -1, -1, -1, -1, -1, -1, -1, -1, -1, -1, -1, -1, -1, -1, 1, -1, -1, -1, -1, -1, -1, -1, -1, -1, -1, -1, -1, -1, -1
       | -1, -1, -1, -1, -1, -1, -1, -1, -1, -1, -1, -1, -1, -1, -1, -1, 1, -1, -1, -1, -1, -1, -1, -1, -1, -1, -1, -1, -1, -1, -1, -1, -1, -1, -1, -1, -1, -1, -1, -1, -1, -1, -1, -1, -1, -1, -1, -1, -1, -1, -1, -1, -1, -1, -1, -1, -1, -1, -1, -1, -1, -1, -1, -1, -1, -1, -1, -1, -1, 1, -1, -1, -1, -1, -1, -1, -1, -1, -1, -1, -1, -1, -1
       | -1, -1, -1, -1, -1, -1, -1, -1, -1, -1, -1, -1, -1, -1, -1, -1, -1, 1, -1, -1, -1, -1, -1, -1, -1, -1, -1, -1, -1, -1, -1, -1, -1, -1, -1, -1, -1, -1, -1, -1, -1, -1, -1, -1, -1, -1, -1, -1, -1, -1, -1, -1, -1, -1, -1, -1, -1, -1, -1, -1, -1, -1, -1, -1, -1, -1, -1, -1, -1, -1, 1, -1, -1, -1, -1, -1, -1, -1, -1, -1, -1, -1, -1
       | -1, -1, -1, -1, -1, -1, -1, -1, -1, -1, -1, -1, -1, -1, -1, -1, -1, -1, 1, -1, -1, -1, -1, -1, -1, -1, -1, -1, -1, -1, -1, -1, -1, -1, -1, -1, -1, -1, -1, -1, -1, -1, -1, -1, -1, -1, -1, -1, -1, -1, -1, -1, -1, -1, -1, -1, -1, -1, -1, -1, -1, -1, -1, -1, -1, -1, -1, -1, -1, -1, -1, 1, -1, -1, -1, -1, -1, -1, -1, -1, -1, -1, -1
       | -1, -1, -1, -1, -1, -1, -1, -1, -1, -1, -1, -1, -1, -1, -1, -1, -1, -1, 1, -1, -1, -1, -1, -1, -1, -1, -1, -1, -1, -1, -1, -1, -1, -1, -1, -1, -1, -1, -1, -1, -1, -1, -1, -1, -1, -1, -1, -1, -1, -1, -1, -1, -1, -1, -1, -1, -1, -1, -1, -1, -1, -1, -1, -1, -1, -1, -1, -1, -1, -1, -1, -1, 1, -1, -1, -1, -1, -1, -1, -1, -1, -1, -1
       | -1, -1, -1, -1, -1, -1, -1, -1, -1, -1, -1, -1, -1, -1, -1, -1, -1, -1, -1, 1, -1, -1, -1, -1, -1, -1, -1, -1, -1, -1, -1, -1, -1, -1, -1, -1, -1, -1, -1, -1, -1, -1, -1, -1, -1, -1, -1, -1, -1, -1, -1, -1, -1, -1, -1, -1, -1, -1, -1, -1, -1, -1, -1, -1, -1, -1, -1, -1, -1, -1, -1, -1, -1, 1, -1, -1, -1, -1, -1, -1, -1, -1, -1
       | -1, -1, -1, -1, -1, -1, -1, -1, -1, -1, -1, -1, -1, -1, -1, -1, -1, -1, -1, -1, 1, -1, -1, -1, -1, -1, -1, -1, -1, -1, -1, -1, -1, -1, -1, -1, -1, -1, -1, -1, -1, -1, -1, -1, -1, -1, -1, -1, -1, -1, -1, -1, -1, -1, -1, -1, -1, -1, -1, -1, -1, -1, -1, -1, -1, -1, -1, -1, -1, -1, -1, -1, -1, -1, 1, -1, -1, -1, -1, -1, -1, -1, -1
       | -1, -1, -1, -1, -1, -1, -1, -1, -1, -1, -1, -1, -1, -1, -1, -1, -1, -1, -1, -1, 1, -1, -1, -1, -1, -1, -1, -1, -1, -1, -1, -1, -1, -1, -1, -1, -1, -1, -1, -1, -1, -1, -1, -1, -1, -1, -1, -1, -1, -1, -1, -1, -1, -1, -1, -1, -1, -1, -1, -1, -1, -1, -1, -1, -1, -1, -1, -1, -1, -1, -1, -1, -1, -1, -1, 1, -1, -1, -1, -1, -1, -1, -1
       | -1, -1, -1, -1, -1, -1, -1, -1, -1, -1, -1, -1, -1, -1, -1, -1, -1, -1, -1, -1, -1, 1, -1, -1, -1, -1, -1, -1, -1, -1, -1, -1, -1, -1, -1, -1, -1, -1, -1, -1, -1, -1, -1, -1, -1, -1, -1, -1, -1, -1, -1, -1, -1, -1, -1, -1, -1, -1, -1, -1, -1, -1, -1, -1, -1, -1, -1, -1, -1, -1, -1, -1, -1, -1, -1, -1, 1, -1, -1, -1, -1, -1, -1
       | -1, -1, -1, -1, -1, -1, -1, -1, -1, -1, -1, -1, -1, -1, -1, -1, -1, -1, -1, -1, -1, -1, 1, -1, -1, -1, -1, -1, -1, -1, -1, -1, -1, -1, -1, -1, -1, -1, -1, -1, -1, -1, -1, -1, -1, -1, -1, -1, -1, -1, -1, -1, -1, -1, -1, -1, -1, -1, -1, -1, -1, -1, -1, -1, -1, -1, -1, -1, -1, -1, -1, -1, -1, -1, -1, -1, -1, 1, -1, -1, -1, -1, -1
       | -1, -1, -1, -1, -1, -1, -1, -1, -1, -1, -1, -1, -1, -1, -1, -1, -1, -1, -1, -1, -1, -1, 1, -1, -1, -1, -1, -1, -1, -1, -1, -1, -1, -1, -1, -1, -1, -1, -1, -1, -1, -1, -1, -1, -1, -1, -1, -1, -1, -1, -1, -1, -1, -1, -1, -1, -1, -1, -1, -1, -1, -1, -1, -1, -1, -1, -1, -1, -1, -1, -1, -1, -1, -1, -1, -1, -1, -1, 1, -1, -1, -1, -1
       | -1, -1, -1, -1, -1, -1, -1, -1, -1, -1, -1, -1, -1, -1, -1, -1, -1, -1, -1, -1, -1, -1, -1, 1, -1, -1, -1, -1, -1, -1, -1, -1, -1, -1, -1, -1, -1, -1, -1, -1, -1, -1, -1, -1, -1, -1, -1, -1, -1, -1, -1, -1, -1, -1, -1, -1, -1, -1, -1, -1, -1, -1, -1, -1, -1, -1, -1, -1, -1, -1, -1, -1, -1, -1, -1, -1, -1, -1, -1, 1, -1, -1, -1
       | -1, -1, -1, -1, -1, -1, -1, -1, -1, -1, -1, -1, -1, -1, -1, -1, -1, -1, -1, -1, -1, -1, -1, -1, 1, -1, -1, -1, -1, -1, -1, -1, -1, -1, -1, -1, -1, -1, -1, -1, -1, -1, -1, -1, -1, -1, -1, -1, -1, -1, -1, -1, -1, -1, -1, -1, -1, -1, -1, -1, -1, -1, -1, -1, -1, -1, -1, -1, -1, -1, -1, -1, -1, -1, -1, -1, -1, -1, -1, -1, 1, -1, -1
       | -1, -1, -1, -1, -1, -1, -1, -1, -1, -1, -1, -1, -1, -1, -1, -1, -1, -1, -1, -1, -1, -1, -1, -1, 1, -1, -1, -1, -1, -1, -1, -1, -1, -1, -1, -1, -1, -1, -1, -1, -1, -1, -1, -1, -1, -1, -1, -1, -1, -1, -1, -1, -1, -1, -1, -1, -1, -1, -1, -1, -1, -1, -1, -1, -1, -1, -1, -1, -1, -1, -1, -1, -1, -1, -1, -1, -1, -1, -1, -1, -1, 1, -1
       | -1, -1, -1, -1, -1, -1, -1, -1, -1, -1, -1, -1, -1, -1, -1, -1, -1, -1, -1, -1, -1, -1, -1, -1, -1, 1, -1, -1, -1, -1, -1, -1, -1, -1, -1, -1, -1, -1, -1, -1, -1, -1, -1, -1, -1, -1, -1, -1, -1, -1, -1, -1, -1, -1, -1, -1, -1, -1, -1, -1, -1, -1, -1, -1, -1, -1, -1, -1, -1, -1, -1, -1, -1, -1, -1, -1, -1, -1, -1, -1, -1, -1, 1 |]);

% ---- platform ----
P = 8;
nFCR = 8;
nCoreTypes = 3;
nModes = 1;
ctype = [1, 1, 1, 2, 2, 2, 3, 3];
fcr = [1, 2, 3, 4, 5, 6, 7, 8];
core_model = ["proc_0", "proc_1", "proc_2"];
max_sil = [4, 4, 4];
core_mem = [64000, 64000, 64000];
partitionable = [false, false, false];
partition_cost = [0, 0, 0];
n_modes_of = [1, 1, 1];
fcr_price = [10, 10, 10, 20, 20, 20, 30, 30];
core_price = array2d(1..3, 1..1,
  [| 10
     | 20
     | 30 |]);
core_power = array2d(1..3, 1..1,
  [| 50
     | 60
     | 70 |]);

% symmetry classes: slots that are genuinely interchangeable
nSymClasses = 0;
symClassSize = [];
maxSymClassSize = 1;
symClass = array2d(1..1, 1..1,
  [| 0 |]);
nInterGroups = 3;
maxInterGroupSize = 3;
interGroupSize = [3, 3, 2];
interGroup = array2d(1..3, 1..3,
  [| 1, 2, 3
     | 4, 5, 6
     | 7, 8, 0 |]);
nTmplGroups = 3;
maxTmplGroupSize = 3;
tmplGroupSize = [3, 3, 2];
tmplGroup = array2d(1..3, 1..3,
  [| 1, 2, 3
     | 4, 5, 6
     | 7, 8, 0 |]);

% ---- timing ----
wcet = array3d(1..83, 1..3, 1..1, [1000000, 1000000, 4, 14, 1000000, 1000000, 1000000, 2, 1000000, 5, 1000000, 1000000, 1000000, 3, 10, 19, 1000000, 1000000, 16, 3, 5, 1000000, 1000000, 9, 1000000, 6, 1000000, 1000000, 12, 1000000, 1000000, 7, 1000000, 1000000, 9, 1000000, 1000000, 14, 1000000, 12, 1000000, 7, 1000000, 1000000, 6, 1000000, 1000000, 17, 1000000, 20, 7, 16, 1000000, 1000000, 10, 1000000, 1000000, 7, 7, 1000000, 1000000, 16, 1000000, 8, 1000000, 1000000, 1000000, 1000000, 14, 7, 1000000, 1000000, 10, 15, 1000000, 11, 1000000, 1000000, 1000000, 1000000, 4, 1000000, 1000000, 1, 1000000, 1000000, 1, 1000000, 1000000, 4, 1000000, 1000000, 4, 14, 1000000, 1000000, 4, 1000000, 1000000, 4, 1000000, 1000000, 14, 1000000, 1000000, 14, 1000000, 1000000, 1000000, 2, 1000000, 1000000, 1, 1000000, 1000000, 1, 1000000, 1000000, 2, 1000000, 1000000, 2, 1000000, 5, 1000000, 1000000, 2, 1000000, 1000000, 2, 1000000, 1000000, 5, 1000000, 1000000, 5, 1000000, 1000000, 1000000, 3, 10, 1000000, 1, 3, 1000000, 1, 3, 1000000, 3, 10, 1000000, 3, 10, 19, 1000000, 1000000, 6, 1000000, 1000000, 6, 1000000, 1000000, 19, 1000000, 1000000, 19, 1000000, 1000000, 5, 1, 2, 1000000, 1000000, 3, 1000000, 2, 1000000, 1000000, 4, 1000000, 1000000, 2, 1000000, 1000000, 3, 1000000, 1000000, 4, 1000000, 1000000, 14, 1000000, 12, 1000000, 7, 1000000, 1000000, 2, 1000000, 1000000, 6, 1000000, 1000000, 17, 1000000, 6, 2, 1000000, 20, 7, 16, 1000000, 1000000, 3, 1000000, 1000000, 10, 1000000, 1000000, 7, 7, 1000000, 1000000, 5, 1000000, 1000000, 16, 1000000, 8, 1000000, 1000000, 1000000, 1000000, 4, 1000000, 1000000, 14, 7, 1000000, 1000000, 3, 4, 1000000, 10, 15, 1000000, 11, 1000000, 1000000]);
mem_req = [1, 1, 1, 1, 1, 1, 1, 1, 1, 1, 1, 1, 1, 1, 1, 1, 1, 1, 1, 1, 1, 1, 1, 1, 1, 1, 1, 1, 1, 1, 1, 1, 1, 1, 1, 1, 1, 1, 1, 1, 1, 1, 1, 1, 1, 1, 1, 1, 1, 1, 1, 1, 1, 1, 1, 1, 1, 1, 1, 1, 1, 1, 1, 1, 1, 1, 1, 1, 1, 1, 1, 1, 1, 1, 1, 1, 1, 1, 1, 1, 1, 1, 1];

% ---- safety ----
sil_req_parent = [3, 3, 3, 3, 3, 3, 2, 2, 2, 2, 2, 2, 1, 0, 1, 0, 1, 0, 1, 0, 1, 0, 1, 0, 1, 0, 3, 3, 3, 3, 3, 3, 3, 3, 3, 3, 3, 3, 3, 3, 3, 3, 3, 3, 3, 3, 3, 3, 3, 3, 3, 3, 3, 3, 3, 3, 2, 2, 2, 2, 2, 2, 1, 1, 0, 1, 1, 0, 1, 1, 0, 1, 1, 0, 1, 1, 0, 1, 1, 0, 1, 1, 0];
dev_base = [100, 100, 100, 100, 100, 100, 100, 100, 100, 100, 100, 100, 100, 100, 100, 100, 100, 100, 100, 100, 100, 100, 100, 100, 100, 100, 100, 100, 100, 100, 100, 100, 100, 100, 100, 100, 100, 100, 100, 100, 100, 100, 100, 100, 100, 100, 100, 100, 100, 100, 100, 100, 100, 100, 100, 100, 100, 100, 100, 100, 100, 100, 100, 100, 100, 100, 100, 100, 100, 100, 100, 100, 100, 100, 100, 100, 100, 100, 100, 100, 100, 100, 100];
dev_k = array1d(0..4, [100, 113, 225, 518, 906]);
allow_promotion = true;

% ---- design constraints ----
period_ub = [131];
min_wcet = [4, 14, 2, 5, 3, 19, 3, 9, 6, 12, 7, 9, 14, 7, 6, 17, 7, 16, 10, 7, 16, 8, 14, 7, 10, 11, 4, 1, 1, 4, 4, 14, 4, 4, 14, 14, 2, 1, 1, 2, 2, 5, 2, 2, 5, 5, 3, 1, 1, 3, 3, 19, 6, 6, 19, 19, 1, 3, 2, 4, 2, 3, 4, 14, 7, 2, 6, 17, 2, 7, 16, 3, 10, 7, 5, 16, 8, 4, 14, 7, 3, 10, 11];
min_procs = [2];
period_mode_partitioned = false;

% ---- latency ----
nLatCon = 0;
lat_src = [];
lat_dst = [];
lat_rho = [];
lat_ub  = [];

% ---- safety patterns: guarded superposition ----
nPat = 9;
pat_name = ["none", "low_sil_doer_checker", "two_of_two_high_sil", "high_sil_isolated_checker", "mixed_sil_doer_checker", "same_cpu_doer_checker", "dual_two_of_two", "one_of_two_failover", "low_sil_diverse_doer_checker"];
pat_recurring = [0, 2, 2, 2, 3, 1, 4, 2, 2];
pat_allowed = array2d(1..83, 1..9,
  [| false, false, true, true, true, false, true, false, false
     | false, false, true, true, true, false, true, false, false
     | false, false, true, true, true, false, true, false, false
     | false, false, true, true, true, false, true, false, false
     | false, false, true, true, true, false, true, false, false
     | false, false, true, true, true, false, true, false, false
     | false, true, false, false, false, false, false, false, true
     | false, true, false, false, false, false, false, false, true
     | false, true, false, false, false, false, false, false, true
     | false, true, false, false, false, false, false, false, true
     | false, true, false, false, false, false, false, false, true
     | false, true, false, false, false, false, false, false, true
     | true, true, false, false, false, false, false, true, true
     | true, false, false, false, false, false, false, true, false
     | true, true, false, false, false, false, false, true, true
     | true, false, false, false, false, false, false, true, false
     | true, true, false, false, false, false, false, true, true
     | true, false, false, false, false, false, false, true, false
     | true, true, false, false, false, false, false, true, true
     | true, false, false, false, false, false, false, true, false
     | true, true, false, false, false, false, false, true, true
     | true, false, false, false, false, false, false, true, false
     | true, true, false, false, false, false, false, true, true
     | true, false, false, false, false, false, false, true, false
     | true, true, false, false, false, false, false, true, true
     | true, false, false, false, false, false, false, true, false
     | false, false, true, true, true, false, true, false, false
     | false, false, true, true, true, false, true, false, false
     | false, false, true, true, true, false, true, false, false
     | false, false, true, true, true, false, true, false, false
     | false, false, true, true, true, false, true, false, false
     | false, false, true, true, true, false, true, false, false
     | false, false, true, true, true, false, true, false, false
     | false, false, true, true, true, false, true, false, false
     | false, false, true, true, true, false, true, false, false
     | false, false, true, true, true, false, true, false, false
     | false, false, true, true, true, false, true, false, false
     | false, false, true, true, true, false, true, false, false
     | false, false, true, true, true, false, true, false, false
     | false, false, true, true, true, false, true, false, false
     | false, false, true, true, true, false, true, false, false
     | false, false, true, true, true, false, true, false, false
     | false, false, true, true, true, false, true, false, false
     | false, false, true, true, true, false, true, false, false
     | false, false, true, true, true, false, true, false, false
     | false, false, true, true, true, false, true, false, false
     | false, false, true, true, true, false, true, false, false
     | false, false, true, true, true, false, true, false, false
     | false, false, true, true, true, false, true, false, false
     | false, false, true, true, true, false, true, false, false
     | false, false, true, true, true, false, true, false, false
     | false, false, true, true, true, false, true, false, false
     | false, false, true, true, true, false, true, false, false
     | false, false, true, true, true, false, true, false, false
     | false, false, true, true, true, false, true, false, false
     | false, false, true, true, true, false, true, false, false
     | false, true, false, false, false, false, false, false, true
     | false, true, false, false, false, false, false, false, true
     | false, true, false, false, false, false, false, false, true
     | false, true, false, false, false, false, false, false, true
     | false, true, false, false, false, false, false, false, true
     | false, true, false, false, false, false, false, false, true
     | true, true, false, false, false, false, false, true, true
     | true, true, false, false, false, false, false, true, true
     | true, false, false, false, false, false, false, true, false
     | true, true, false, false, false, false, false, true, true
     | true, true, false, false, false, false, false, true, true
     | true, false, false, false, false, false, false, true, false
     | true, true, false, false, false, false, false, true, true
     | true, true, false, false, false, false, false, true, true
     | true, false, false, false, false, false, false, true, false
     | true, true, false, false, false, false, false, true, true
     | true, true, false, false, false, false, false, true, true
     | true, false, false, false, false, false, false, true, false
     | true, true, false, false, false, false, false, true, true
     | true, true, false, false, false, false, false, true, true
     | true, false, false, false, false, false, false, true, false
     | true, true, false, false, false, false, false, true, true
     | true, true, false, false, false, false, false, true, true
     | true, false, false, false, false, false, false, true, false
     | true, true, false, false, false, false, false, true, true
     | true, true, false, false, false, false, false, true, true
     | true, false, false, false, false, false, false, true, false |]);
par_owner = [1, 2, 3, 4, 5, 6, 7, 8, 9, 10, 11, 12, 13, 14, 15, 16, 17, 18, 19, 20, 21, 22, 23, 24, 25, 26, 1, 1, 1, 1, 1, 2, 2, 2, 2, 2, 3, 3, 3, 3, 3, 4, 4, 4, 4, 4, 5, 5, 5, 5, 5, 6, 6, 6, 6, 6, 7, 8, 9, 10, 11, 12, 13, 13, 14, 15, 15, 16, 17, 17, 18, 19, 19, 20, 21, 21, 22, 23, 23, 24, 25, 25, 26];
node_owner = [1, 2, 3, 4, 5, 6, 7, 8, 9, 10, 11, 12, 13, 14, 15, 16, 17, 18, 19, 20, 21, 22, 23, 24, 25, 26, 1, 1, 1, 1, 1, 2, 2, 2, 2, 2, 3, 3, 3, 3, 3, 4, 4, 4, 4, 4, 5, 5, 5, 5, 5, 6, 6, 6, 6, 6, 7, 8, 9, 10, 11, 12, 13, 13, 14, 15, 15, 16, 17, 17, 18, 19, 19, 20, 21, 21, 22, 23, 23, 24, 25, 25, 26];
owner_node = [1, 2, 3, 4, 5, 6, 7, 8, 9, 10, 11, 12, 13, 14, 15, 16, 17, 18, 19, 20, 21, 22, 23, 24, 25, 26, 1, 1, 1, 1, 1, 2, 2, 2, 2, 2, 3, 3, 3, 3, 3, 4, 4, 4, 4, 4, 5, 5, 5, 5, 5, 6, 6, 6, 6, 6, 7, 8, 9, 10, 11, 12, 13, 13, 14, 15, 15, 16, 17, 17, 18, 19, 19, 20, 21, 21, 22, 23, 23, 24, 25, 25, 26];
node_guard = array2d(1..83, 1..9,
  [| true, true, true, true, true, true, true, true, true
     | true, true, true, true, true, true, true, true, true
     | true, true, true, true, true, true, true, true, true
     | true, true, true, true, true, true, true, true, true
     | true, true, true, true, true, true, true, true, true
     | true, true, true, true, true, true, true, true, true
     | true, true, true, true, true, true, true, true, true
     | true, true, true, true, true, true, true, true, true
     | true, true, true, true, true, true, true, true, true
     | true, true, true, true, true, true, true, true, true
     | true, true, true, true, true, true, true, true, true
     | true, true, true, true, true, true, true, true, true
     | true, true, true, true, true, true, true, true, true
     | true, true, true, true, true, true, true, true, true
     | true, true, true, true, true, true, true, true, true
     | true, true, true, true, true, true, true, true, true
     | true, true, true, true, true, true, true, true, true
     | true, true, true, true, true, true, true, true, true
     | true, true, true, true, true, true, true, true, true
     | true, true, true, true, true, true, true, true, true
     | true, true, true, true, true, true, true, true, true
     | true, true, true, true, true, true, true, true, true
     | true, true, true, true, true, true, true, true, true
     | true, true, true, true, true, true, true, true, true
     | true, true, true, true, true, true, true, true, true
     | true, true, true, true, true, true, true, true, true
     | false, false, true, false, false, false, true, false, false
     | false, false, false, true, true, false, false, false, false
     | false, false, false, false, true, false, false, false, false
     | false, false, false, false, false, false, true, false, false
     | false, false, false, false, false, false, true, false, false
     | false, false, true, false, false, false, true, false, false
     | false, false, false, true, true, false, false, false, false
     | false, false, false, false, true, false, false, false, false
     | false, false, false, false, false, false, true, false, false
     | false, false, false, false, false, false, true, false, false
     | false, false, true, false, false, false, true, false, false
     | false, false, false, true, true, false, false, false, false
     | false, false, false, false, true, false, false, false, false
     | false, false, false, false, false, false, true, false, false
     | false, false, false, false, false, false, true, false, false
     | false, false, true, false, false, false, true, false, false
     | false, false, false, true, true, false, false, false, false
     | false, false, false, false, true, false, false, false, false
     | false, false, false, false, false, false, true, false, false
     | false, false, false, false, false, false, true, false, false
     | false, false, true, false, false, false, true, false, false
     | false, false, false, true, true, false, false, false, false
     | false, false, false, false, true, false, false, false, false
     | false, false, false, false, false, false, true, false, false
     | false, false, false, false, false, false, true, false, false
     | false, false, true, false, false, false, true, false, false
     | false, false, false, true, true, false, false, false, false
     | false, false, false, false, true, false, false, false, false
     | false, false, false, false, false, false, true, false, false
     | false, false, false, false, false, false, true, false, false
     | false, true, false, false, false, false, false, false, true
     | false, true, false, false, false, false, false, false, true
     | false, true, false, false, false, false, false, false, true
     | false, true, false, false, false, false, false, false, true
     | false, true, false, false, false, false, false, false, true
     | false, true, false, false, false, false, false, false, true
     | false, true, false, false, false, false, false, false, true
     | false, false, false, false, false, false, false, true, false
     | false, false, false, false, false, false, false, true, false
     | false, true, false, false, false, false, false, false, true
     | false, false, false, false, false, false, false, true, false
     | false, false, false, false, false, false, false, true, false
     | false, true, false, false, false, false, false, false, true
     | false, false, false, false, false, false, false, true, false
     | false, false, false, false, false, false, false, true, false
     | false, true, false, false, false, false, false, false, true
     | false, false, false, false, false, false, false, true, false
     | false, false, false, false, false, false, false, true, false
     | false, true, false, false, false, false, false, false, true
     | false, false, false, false, false, false, false, true, false
     | false, false, false, false, false, false, false, true, false
     | false, true, false, false, false, false, false, false, true
     | false, false, false, false, false, false, false, true, false
     | false, false, false, false, false, false, false, true, false
     | false, true, false, false, false, false, false, false, true
     | false, false, false, false, false, false, false, true, false
     | false, false, false, false, false, false, false, true, false |]);
nPE = 278;
pe_src = [1, 27, 2, 1, 28, 2, 1, 1, 28, 29, 28, 2, 2, 1, 27, 30, 31, 30, 2, 2, 2, 2, 32, 6, 8, 12, 2, 33, 6, 8, 12, 2, 2, 33, 34, 33, 6, 8, 12, 6, 8, 12, 2, 32, 35, 36, 35, 6, 8, 12, 6, 8, 12, 6, 8, 12, 3, 37, 1, 3, 38, 1, 3, 3, 38, 39, 38, 1, 1, 3, 37, 40, 41, 40, 1, 1, 1, 4, 42, 1, 4, 43, 1, 4, 4, 43, 44, 43, 1, 1, 4, 42, 45, 46, 45, 1, 1, 1, 5, 47, 3, 7, 5, 48, 3, 7, 5, 5, 48, 49, 48, 3, 7, 3, 7, 5, 47, 50, 51, 50, 3, 7, 3, 7, 3, 7, 6, 52, 16, 6, 53, 16, 6, 6, 53, 54, 53, 16, 16, 6, 52, 55, 56, 55, 16, 16, 16, 7, 57, 14, 12, 25, 7, 57, 14, 12, 25, 8, 58, 10, 9, 8, 58, 10, 9, 9, 59, 4, 9, 59, 4, 10, 60, 11, 22, 10, 60, 11, 22, 11, 61, 17, 24, 11, 61, 17, 24, 12, 62, 4, 12, 62, 4, 13, 63, 7, 64, 7, 13, 63, 7, 65, 18, 15, 66, 10, 67, 10, 15, 66, 10, 68, 13, 17, 69, 24, 70, 24, 17, 69, 24, 71, 4, 15, 19, 72, 9, 5, 73, 9, 5, 19, 72, 9, 5, 74, 13, 23, 21, 21, 75, 19, 76, 19, 21, 75, 19, 77, 20, 23, 78, 2, 18, 11, 26, 79, 2, 18, 11, 26, 23, 78, 2, 18, 11, 26, 80, 4, 25, 81, 26, 82, 26, 25, 81, 26, 83, 19];
pe_dst = [27, 1, 27, 28, 1, 28, 28, 29, 29, 28, 1, 28, 29, 27, 1, 31, 30, 1, 27, 30, 31, 32, 2, 32, 32, 32, 33, 2, 33, 33, 33, 33, 34, 34, 33, 2, 33, 33, 33, 34, 34, 34, 32, 2, 36, 35, 2, 32, 32, 32, 35, 35, 35, 36, 36, 36, 37, 3, 37, 38, 3, 38, 38, 39, 39, 38, 3, 38, 39, 37, 3, 41, 40, 3, 37, 40, 41, 42, 4, 42, 43, 4, 43, 43, 44, 44, 43, 4, 43, 44, 42, 4, 46, 45, 4, 42, 45, 46, 47, 5, 47, 47, 48, 5, 48, 48, 48, 49, 49, 48, 5, 48, 48, 49, 49, 47, 5, 51, 50, 5, 47, 47, 50, 50, 51, 51, 52, 6, 52, 53, 6, 53, 53, 54, 54, 53, 6, 53, 54, 52, 6, 56, 55, 6, 52, 55, 56, 57, 7, 57, 57, 57, 57, 7, 57, 57, 57, 58, 8, 58, 58, 58, 8, 58, 58, 59, 9, 59, 59, 9, 59, 60, 10, 60, 60, 60, 10, 60, 60, 61, 11, 61, 61, 61, 11, 61, 61, 62, 12, 62, 62, 12, 62, 63, 13, 63, 13, 64, 63, 13, 63, 14, 65, 66, 15, 66, 15, 67, 66, 15, 66, 16, 68, 69, 17, 69, 17, 70, 69, 17, 69, 18, 71, 71, 72, 19, 72, 72, 19, 73, 73, 72, 19, 72, 72, 20, 74, 74, 74, 75, 21, 75, 21, 76, 75, 21, 75, 22, 77, 78, 23, 78, 78, 78, 78, 23, 79, 79, 79, 79, 78, 23, 78, 78, 78, 78, 24, 80, 81, 25, 81, 25, 82, 81, 25, 81, 26, 83];
pe_tok = [0, 1, 0, 0, 1, 0, 0, 0, 1, 1, 1, 0, 0, 0, 1, 0, 1, 1, 0, 0, 0, 0, 1, 0, 0, 1, 0, 1, 0, 0, 1, 0, 0, 1, 1, 1, 0, 0, 1, 0, 0, 1, 0, 1, 0, 1, 1, 0, 0, 1, 0, 0, 1, 0, 0, 1, 0, 1, 0, 0, 1, 0, 0, 0, 1, 1, 1, 0, 0, 0, 1, 0, 1, 1, 0, 0, 0, 0, 1, 0, 0, 1, 0, 0, 0, 1, 1, 1, 0, 0, 0, 1, 0, 1, 1, 0, 0, 0, 0, 1, 2, 0, 0, 1, 2, 0, 0, 0, 1, 1, 1, 2, 0, 2, 0, 0, 1, 0, 1, 1, 2, 0, 2, 0, 2, 0, 0, 1, 0, 0, 1, 0, 0, 0, 1, 1, 1, 0, 0, 0, 1, 0, 1, 1, 0, 0, 0, 0, 1, 1, 2, 0, 0, 1, 1, 2, 0, 0, 1, 0, 1, 0, 1, 0, 1, 0, 1, 0, 0, 1, 0, 0, 1, 1, 0, 0, 1, 1, 0, 0, 1, 0, 0, 0, 1, 0, 0, 0, 1, 0, 0, 1, 0, 0, 1, 0, 1, 0, 0, 1, 0, 1, 0, 0, 1, 0, 1, 0, 0, 1, 0, 1, 0, 0, 1, 0, 1, 0, 0, 1, 0, 1, 1, 0, 0, 1, 1, 0, 1, 1, 0, 0, 1, 1, 0, 1, 1, 0, 0, 0, 1, 1, 1, 1, 0, 1, 1, 1, 0, 0, 1, 2, 1, 2, 1, 1, 2, 1, 2, 1, 0, 1, 2, 1, 2, 1, 1, 0, 0, 1, 1, 1, 1, 0, 1, 1, 1, 0];
pe_owner = [1, 1, 1, 1, 1, 1, 1, 1, 1, 1, 1, 1, 1, 1, 1, 1, 1, 1, 1, 1, 1, 2, 2, 2, 2, 2, 2, 2, 2, 2, 2, 2, 2, 2, 2, 2, 2, 2, 2, 2, 2, 2, 2, 2, 2, 2, 2, 2, 2, 2, 2, 2, 2, 2, 2, 2, 3, 3, 3, 3, 3, 3, 3, 3, 3, 3, 3, 3, 3, 3, 3, 3, 3, 3, 3, 3, 3, 4, 4, 4, 4, 4, 4, 4, 4, 4, 4, 4, 4, 4, 4, 4, 4, 4, 4, 4, 4, 4, 5, 5, 5, 5, 5, 5, 5, 5, 5, 5, 5, 5, 5, 5, 5, 5, 5, 5, 5, 5, 5, 5, 5, 5, 5, 5, 5, 5, 6, 6, 6, 6, 6, 6, 6, 6, 6, 6, 6, 6, 6, 6, 6, 6, 6, 6, 6, 6, 6, 7, 7, 7, 7, 7, 7, 7, 7, 7, 7, 8, 8, 8, 8, 8, 8, 8, 8, 9, 9, 9, 9, 9, 9, 10, 10, 10, 10, 10, 10, 10, 10, 11, 11, 11, 11, 11, 11, 11, 11, 12, 12, 12, 12, 12, 12, 13, 13, 13, 13, 13, 13, 13, 13, 14, 14, 15, 15, 15, 15, 15, 15, 15, 15, 16, 16, 17, 17, 17, 17, 17, 17, 17, 17, 18, 18, 18, 19, 19, 19, 19, 19, 19, 19, 19, 19, 19, 19, 20, 20, 20, 20, 21, 21, 21, 21, 21, 21, 21, 21, 22, 22, 23, 23, 23, 23, 23, 23, 23, 23, 23, 23, 23, 23, 23, 23, 23, 23, 23, 24, 24, 25, 25, 25, 25, 25, 25, 25, 25, 26, 26];
pe_guard = array2d(1..278, 1..9,
  [| false, false, true, false, false, false, false, false, false
     | false, false, true, false, false, false, false, false, false
     | false, false, true, false, false, false, false, false, false
     | false, false, false, true, false, false, false, false, false
     | false, false, false, true, false, false, false, false, false
     | false, false, false, true, false, false, false, false, false
     | false, false, false, false, true, false, false, false, false
     | false, false, false, false, true, false, false, false, false
     | false, false, false, false, true, false, false, false, false
     | false, false, false, false, true, false, false, false, false
     | false, false, false, false, true, false, false, false, false
     | false, false, false, false, true, false, false, false, false
     | false, false, false, false, true, false, false, false, false
     | false, false, false, false, false, false, true, false, false
     | false, false, false, false, false, false, true, false, false
     | false, false, false, false, false, false, true, false, false
     | false, false, false, false, false, false, true, false, false
     | false, false, false, false, false, false, true, false, false
     | false, false, false, false, false, false, true, false, false
     | false, false, false, false, false, false, true, false, false
     | false, false, false, false, false, false, true, false, false
     | false, false, true, false, false, false, false, false, false
     | false, false, true, false, false, false, false, false, false
     | false, false, true, false, false, false, false, false, false
     | false, false, true, false, false, false, false, false, false
     | false, false, true, false, false, false, false, false, false
     | false, false, false, true, false, false, false, false, false
     | false, false, false, true, false, false, false, false, false
     | false, false, false, true, false, false, false, false, false
     | false, false, false, true, false, false, false, false, false
     | false, false, false, true, false, false, false, false, false
     | false, false, false, false, true, false, false, false, false
     | false, false, false, false, true, false, false, false, false
     | false, false, false, false, true, false, false, false, false
     | false, false, false, false, true, false, false, false, false
     | false, false, false, false, true, false, false, false, false
     | false, false, false, false, true, false, false, false, false
     | false, false, false, false, true, false, false, false, false
     | false, false, false, false, true, false, false, false, false
     | false, false, false, false, true, false, false, false, false
     | false, false, false, false, true, false, false, false, false
     | false, false, false, false, true, false, false, false, false
     | false, false, false, false, false, false, true, false, false
     | false, false, false, false, false, false, true, false, false
     | false, false, false, false, false, false, true, false, false
     | false, false, false, false, false, false, true, false, false
     | false, false, false, false, false, false, true, false, false
     | false, false, false, false, false, false, true, false, false
     | false, false, false, false, false, false, true, false, false
     | false, false, false, false, false, false, true, false, false
     | false, false, false, false, false, false, true, false, false
     | false, false, false, false, false, false, true, false, false
     | false, false, false, false, false, false, true, false, false
     | false, false, false, false, false, false, true, false, false
     | false, false, false, false, false, false, true, false, false
     | false, false, false, false, false, false, true, false, false
     | false, false, true, false, false, false, false, false, false
     | false, false, true, false, false, false, false, false, false
     | false, false, true, false, false, false, false, false, false
     | false, false, false, true, false, false, false, false, false
     | false, false, false, true, false, false, false, false, false
     | false, false, false, true, false, false, false, false, false
     | false, false, false, false, true, false, false, false, false
     | false, false, false, false, true, false, false, false, false
     | false, false, false, false, true, false, false, false, false
     | false, false, false, false, true, false, false, false, false
     | false, false, false, false, true, false, false, false, false
     | false, false, false, false, true, false, false, false, false
     | false, false, false, false, true, false, false, false, false
     | false, false, false, false, false, false, true, false, false
     | false, false, false, false, false, false, true, false, false
     | false, false, false, false, false, false, true, false, false
     | false, false, false, false, false, false, true, false, false
     | false, false, false, false, false, false, true, false, false
     | false, false, false, false, false, false, true, false, false
     | false, false, false, false, false, false, true, false, false
     | false, false, false, false, false, false, true, false, false
     | false, false, true, false, false, false, false, false, false
     | false, false, true, false, false, false, false, false, false
     | false, false, true, false, false, false, false, false, false
     | false, false, false, true, false, false, false, false, false
     | false, false, false, true, false, false, false, false, false
     | false, false, false, true, false, false, false, false, false
     | false, false, false, false, true, false, false, false, false
     | false, false, false, false, true, false, false, false, false
     | false, false, false, false, true, false, false, false, false
     | false, false, false, false, true, false, false, false, false
     | false, false, false, false, true, false, false, false, false
     | false, false, false, false, true, false, false, false, false
     | false, false, false, false, true, false, false, false, false
     | false, false, false, false, false, false, true, false, false
     | false, false, false, false, false, false, true, false, false
     | false, false, false, false, false, false, true, false, false
     | false, false, false, false, false, false, true, false, false
     | false, false, false, false, false, false, true, false, false
     | false, false, false, false, false, false, true, false, false
     | false, false, false, false, false, false, true, false, false
     | false, false, false, false, false, false, true, false, false
     | false, false, true, false, false, false, false, false, false
     | false, false, true, false, false, false, false, false, false
     | false, false, true, false, false, false, false, false, false
     | false, false, true, false, false, false, false, false, false
     | false, false, false, true, false, false, false, false, false
     | false, false, false, true, false, false, false, false, false
     | false, false, false, true, false, false, false, false, false
     | false, false, false, true, false, false, false, false, false
     | false, false, false, false, true, false, false, false, false
     | false, false, false, false, true, false, false, false, false
     | false, false, false, false, true, false, false, false, false
     | false, false, false, false, true, false, false, false, false
     | false, false, false, false, true, false, false, false, false
     | false, false, false, false, true, false, false, false, false
     | false, false, false, false, true, false, false, false, false
     | false, false, false, false, true, false, false, false, false
     | false, false, false, false, true, false, false, false, false
     | false, false, false, false, false, false, true, false, false
     | false, false, false, false, false, false, true, false, false
     | false, false, false, false, false, false, true, false, false
     | false, false, false, false, false, false, true, false, false
     | false, false, false, false, false, false, true, false, false
     | false, false, false, false, false, false, true, false, false
     | false, false, false, false, false, false, true, false, false
     | false, false, false, false, false, false, true, false, false
     | false, false, false, false, false, false, true, false, false
     | false, false, false, false, false, false, true, false, false
     | false, false, false, false, false, false, true, false, false
     | false, false, true, false, false, false, false, false, false
     | false, false, true, false, false, false, false, false, false
     | false, false, true, false, false, false, false, false, false
     | false, false, false, true, false, false, false, false, false
     | false, false, false, true, false, false, false, false, false
     | false, false, false, true, false, false, false, false, false
     | false, false, false, false, true, false, false, false, false
     | false, false, false, false, true, false, false, false, false
     | false, false, false, false, true, false, false, false, false
     | false, false, false, false, true, false, false, false, false
     | false, false, false, false, true, false, false, false, false
     | false, false, false, false, true, false, false, false, false
     | false, false, false, false, true, false, false, false, false
     | false, false, false, false, false, false, true, false, false
     | false, false, false, false, false, false, true, false, false
     | false, false, false, false, false, false, true, false, false
     | false, false, false, false, false, false, true, false, false
     | false, false, false, false, false, false, true, false, false
     | false, false, false, false, false, false, true, false, false
     | false, false, false, false, false, false, true, false, false
     | false, false, false, false, false, false, true, false, false
     | false, true, false, false, false, false, false, false, false
     | false, true, false, false, false, false, false, false, false
     | false, true, false, false, false, false, false, false, false
     | false, true, false, false, false, false, false, false, false
     | false, true, false, false, false, false, false, false, false
     | false, false, false, false, false, false, false, false, true
     | false, false, false, false, false, false, false, false, true
     | false, false, false, false, false, false, false, false, true
     | false, false, false, false, false, false, false, false, true
     | false, false, false, false, false, false, false, false, true
     | false, true, false, false, false, false, false, false, false
     | false, true, false, false, false, false, false, false, false
     | false, true, false, false, false, false, false, false, false
     | false, true, false, false, false, false, false, false, false
     | false, false, false, false, false, false, false, false, true
     | false, false, false, false, false, false, false, false, true
     | false, false, false, false, false, false, false, false, true
     | false, false, false, false, false, false, false, false, true
     | false, true, false, false, false, false, false, false, false
     | false, true, false, false, false, false, false, false, false
     | false, true, false, false, false, false, false, false, false
     | false, false, false, false, false, false, false, false, true
     | false, false, false, false, false, false, false, false, true
     | false, false, false, false, false, false, false, false, true
     | false, true, false, false, false, false, false, false, false
     | false, true, false, false, false, false, false, false, false
     | false, true, false, false, false, false, false, false, false
     | false, true, false, false, false, false, false, false, false
     | false, false, false, false, false, false, false, false, true
     | false, false, false, false, false, false, false, false, true
     | false, false, false, false, false, false, false, false, true
     | false, false, false, false, false, false, false, false, true
     | false, true, false, false, false, false, false, false, false
     | false, true, false, false, false, false, false, false, false
     | false, true, false, false, false, false, false, false, false
     | false, true, false, false, false, false, false, false, false
     | false, false, false, false, false, false, false, false, true
     | false, false, false, false, false, false, false, false, true
     | false, false, false, false, false, false, false, false, true
     | false, false, false, false, false, false, false, false, true
     | false, true, false, false, false, false, false, false, false
     | false, true, false, false, false, false, false, false, false
     | false, true, false, false, false, false, false, false, false
     | false, false, false, false, false, false, false, false, true
     | false, false, false, false, false, false, false, false, true
     | false, false, false, false, false, false, false, false, true
     | false, true, false, false, false, false, false, false, false
     | false, true, false, false, false, false, false, false, false
     | false, true, false, false, false, false, false, false, false
     | false, false, false, false, false, false, false, true, false
     | false, false, false, false, false, false, false, true, false
     | false, false, false, false, false, false, false, false, true
     | false, false, false, false, false, false, false, false, true
     | false, false, false, false, false, false, false, false, true
     | false, false, false, false, false, false, false, true, false
     | false, false, false, false, false, false, false, true, false
     | false, true, false, false, false, false, false, false, false
     | false, true, false, false, false, false, false, false, false
     | false, true, false, false, false, false, false, false, false
     | false, false, false, false, false, false, false, true, false
     | false, false, false, false, false, false, false, true, false
     | false, false, false, false, false, false, false, false, true
     | false, false, false, false, false, false, false, false, true
     | false, false, false, false, false, false, false, false, true
     | false, false, false, false, false, false, false, true, false
     | false, false, false, false, false, false, false, true, false
     | false, true, false, false, false, false, false, false, false
     | false, true, false, false, false, false, false, false, false
     | false, true, false, false, false, false, false, false, false
     | false, false, false, false, false, false, false, true, false
     | false, false, false, false, false, false, false, true, false
     | false, false, false, false, false, false, false, false, true
     | false, false, false, false, false, false, false, false, true
     | false, false, false, false, false, false, false, false, true
     | false, false, false, false, false, false, false, true, false
     | false, false, false, false, false, false, false, true, false
     | false, false, false, false, false, false, false, true, false
     | false, true, false, false, false, false, false, false, false
     | false, true, false, false, false, false, false, false, false
     | false, true, false, false, false, false, false, false, false
     | false, true, false, false, false, false, false, false, false
     | false, false, false, false, false, false, false, true, false
     | false, false, false, false, false, false, false, true, false
     | false, false, false, false, false, false, false, true, false
     | false, false, false, false, false, false, false, false, true
     | false, false, false, false, false, false, false, false, true
     | false, false, false, false, false, false, false, false, true
     | false, false, false, false, false, false, false, false, true
     | false, false, false, false, false, false, false, true, false
     | false, false, false, false, false, false, false, true, false
     | false, false, false, false, false, false, false, true, false
     | false, false, false, false, false, false, false, true, false
     | false, true, false, false, false, false, false, false, false
     | false, true, false, false, false, false, false, false, false
     | false, true, false, false, false, false, false, false, false
     | false, false, false, false, false, false, false, true, false
     | false, false, false, false, false, false, false, true, false
     | false, false, false, false, false, false, false, false, true
     | false, false, false, false, false, false, false, false, true
     | false, false, false, false, false, false, false, false, true
     | false, false, false, false, false, false, false, true, false
     | false, false, false, false, false, false, false, true, false
     | false, true, false, false, false, false, false, false, false
     | false, true, false, false, false, false, false, false, false
     | false, true, false, false, false, false, false, false, false
     | false, true, false, false, false, false, false, false, false
     | false, true, false, false, false, false, false, false, false
     | false, true, false, false, false, false, false, false, false
     | false, false, false, false, false, false, false, true, false
     | false, false, false, false, false, false, false, true, false
     | false, false, false, false, false, false, false, true, false
     | false, false, false, false, false, false, false, true, false
     | false, false, false, false, false, false, false, true, false
     | false, false, false, false, false, false, false, false, true
     | false, false, false, false, false, false, false, false, true
     | false, false, false, false, false, false, false, false, true
     | false, false, false, false, false, false, false, false, true
     | false, false, false, false, false, false, false, false, true
     | false, false, false, false, false, false, false, false, true
     | false, false, false, false, false, false, false, true, false
     | false, false, false, false, false, false, false, true, false
     | false, true, false, false, false, false, false, false, false
     | false, true, false, false, false, false, false, false, false
     | false, true, false, false, false, false, false, false, false
     | false, false, false, false, false, false, false, true, false
     | false, false, false, false, false, false, false, true, false
     | false, false, false, false, false, false, false, false, true
     | false, false, false, false, false, false, false, false, true
     | false, false, false, false, false, false, false, false, true
     | false, false, false, false, false, false, false, true, false
     | false, false, false, false, false, false, false, true, false |]);
pe_owner2 = [1, 1, 1, 1, 1, 1, 1, 1, 1, 1, 1, 1, 1, 1, 1, 1, 1, 1, 1, 1, 1, 2, 2, 2, 2, 2, 2, 2, 2, 2, 2, 2, 2, 2, 2, 2, 2, 2, 2, 2, 2, 2, 2, 2, 2, 2, 2, 2, 2, 2, 2, 2, 2, 2, 2, 2, 3, 3, 3, 3, 3, 3, 3, 3, 3, 3, 3, 3, 3, 3, 3, 3, 3, 3, 3, 3, 3, 4, 4, 4, 4, 4, 4, 4, 4, 4, 4, 4, 4, 4, 4, 4, 4, 4, 4, 4, 4, 4, 5, 5, 5, 5, 5, 5, 5, 5, 5, 5, 5, 5, 5, 5, 5, 5, 5, 5, 5, 5, 5, 5, 5, 5, 5, 5, 5, 5, 6, 6, 6, 6, 6, 6, 6, 6, 6, 6, 6, 6, 6, 6, 6, 6, 6, 6, 6, 6, 6, 7, 7, 7, 7, 7, 7, 7, 7, 7, 7, 8, 8, 8, 8, 8, 8, 8, 8, 9, 9, 9, 9, 9, 9, 10, 10, 10, 10, 10, 10, 10, 10, 11, 11, 11, 11, 11, 11, 11, 11, 12, 12, 12, 12, 12, 12, 13, 13, 13, 13, 13, 13, 13, 13, 14, 14, 15, 15, 15, 15, 15, 15, 15, 15, 16, 16, 17, 17, 17, 17, 17, 17, 17, 17, 18, 18, 18, 19, 19, 19, 19, 19, 19, 19, 19, 19, 19, 19, 20, 20, 20, 20, 21, 21, 21, 21, 21, 21, 21, 21, 22, 22, 23, 23, 23, 23, 23, 23, 23, 23, 23, 23, 23, 23, 23, 23, 23, 23, 23, 24, 24, 25, 25, 25, 25, 25, 25, 25, 25, 26, 26];
pe_guard2 = array2d(1..278, 1..9,
  [| true, true, true, true, true, true, true, true, true
     | true, true, true, true, true, true, true, true, true
     | true, true, true, true, true, true, true, true, true
     | true, true, true, true, true, true, true, true, true
     | true, true, true, true, true, true, true, true, true
     | true, true, true, true, true, true, true, true, true
     | true, true, true, true, true, true, true, true, true
     | true, true, true, true, true, true, true, true, true
     | true, true, true, true, true, true, true, true, true
     | true, true, true, true, true, true, true, true, true
     | true, true, true, true, true, true, true, true, true
     | true, true, true, true, true, true, true, true, true
     | true, true, true, true, true, true, true, true, true
     | true, true, true, true, true, true, true, true, true
     | true, true, true, true, true, true, true, true, true
     | true, true, true, true, true, true, true, true, true
     | true, true, true, true, true, true, true, true, true
     | true, true, true, true, true, true, true, true, true
     | true, true, true, true, true, true, true, true, true
     | true, true, true, true, true, true, true, true, true
     | true, true, true, true, true, true, true, true, true
     | true, true, true, true, true, true, true, true, true
     | true, true, true, true, true, true, true, true, true
     | true, true, true, true, true, true, true, true, true
     | true, true, true, true, true, true, true, true, true
     | true, true, true, true, true, true, true, true, true
     | true, true, true, true, true, true, true, true, true
     | true, true, true, true, true, true, true, true, true
     | true, true, true, true, true, true, true, true, true
     | true, true, true, true, true, true, true, true, true
     | true, true, true, true, true, true, true, true, true
     | true, true, true, true, true, true, true, true, true
     | true, true, true, true, true, true, true, true, true
     | true, true, true, true, true, true, true, true, true
     | true, true, true, true, true, true, true, true, true
     | true, true, true, true, true, true, true, true, true
     | true, true, true, true, true, true, true, true, true
     | true, true, true, true, true, true, true, true, true
     | true, true, true, true, true, true, true, true, true
     | true, true, true, true, true, true, true, true, true
     | true, true, true, true, true, true, true, true, true
     | true, true, true, true, true, true, true, true, true
     | true, true, true, true, true, true, true, true, true
     | true, true, true, true, true, true, true, true, true
     | true, true, true, true, true, true, true, true, true
     | true, true, true, true, true, true, true, true, true
     | true, true, true, true, true, true, true, true, true
     | true, true, true, true, true, true, true, true, true
     | true, true, true, true, true, true, true, true, true
     | true, true, true, true, true, true, true, true, true
     | true, true, true, true, true, true, true, true, true
     | true, true, true, true, true, true, true, true, true
     | true, true, true, true, true, true, true, true, true
     | true, true, true, true, true, true, true, true, true
     | true, true, true, true, true, true, true, true, true
     | true, true, true, true, true, true, true, true, true
     | true, true, true, true, true, true, true, true, true
     | true, true, true, true, true, true, true, true, true
     | true, true, true, true, true, true, true, true, true
     | true, true, true, true, true, true, true, true, true
     | true, true, true, true, true, true, true, true, true
     | true, true, true, true, true, true, true, true, true
     | true, true, true, true, true, true, true, true, true
     | true, true, true, true, true, true, true, true, true
     | true, true, true, true, true, true, true, true, true
     | true, true, true, true, true, true, true, true, true
     | true, true, true, true, true, true, true, true, true
     | true, true, true, true, true, true, true, true, true
     | true, true, true, true, true, true, true, true, true
     | true, true, true, true, true, true, true, true, true
     | true, true, true, true, true, true, true, true, true
     | true, true, true, true, true, true, true, true, true
     | true, true, true, true, true, true, true, true, true
     | true, true, true, true, true, true, true, true, true
     | true, true, true, true, true, true, true, true, true
     | true, true, true, true, true, true, true, true, true
     | true, true, true, true, true, true, true, true, true
     | true, true, true, true, true, true, true, true, true
     | true, true, true, true, true, true, true, true, true
     | true, true, true, true, true, true, true, true, true
     | true, true, true, true, true, true, true, true, true
     | true, true, true, true, true, true, true, true, true
     | true, true, true, true, true, true, true, true, true
     | true, true, true, true, true, true, true, true, true
     | true, true, true, true, true, true, true, true, true
     | true, true, true, true, true, true, true, true, true
     | true, true, true, true, true, true, true, true, true
     | true, true, true, true, true, true, true, true, true
     | true, true, true, true, true, true, true, true, true
     | true, true, true, true, true, true, true, true, true
     | true, true, true, true, true, true, true, true, true
     | true, true, true, true, true, true, true, true, true
     | true, true, true, true, true, true, true, true, true
     | true, true, true, true, true, true, true, true, true
     | true, true, true, true, true, true, true, true, true
     | true, true, true, true, true, true, true, true, true
     | true, true, true, true, true, true, true, true, true
     | true, true, true, true, true, true, true, true, true
     | true, true, true, true, true, true, true, true, true
     | true, true, true, true, true, true, true, true, true
     | true, true, true, true, true, true, true, true, true
     | true, true, true, true, true, true, true, true, true
     | true, true, true, true, true, true, true, true, true
     | true, true, true, true, true, true, true, true, true
     | true, true, true, true, true, true, true, true, true
     | true, true, true, true, true, true, true, true, true
     | true, true, true, true, true, true, true, true, true
     | true, true, true, true, true, true, true, true, true
     | true, true, true, true, true, true, true, true, true
     | true, true, true, true, true, true, true, true, true
     | true, true, true, true, true, true, true, true, true
     | true, true, true, true, true, true, true, true, true
     | true, true, true, true, true, true, true, true, true
     | true, true, true, true, true, true, true, true, true
     | true, true, true, true, true, true, true, true, true
     | true, true, true, true, true, true, true, true, true
     | true, true, true, true, true, true, true, true, true
     | true, true, true, true, true, true, true, true, true
     | true, true, true, true, true, true, true, true, true
     | true, true, true, true, true, true, true, true, true
     | true, true, true, true, true, true, true, true, true
     | true, true, true, true, true, true, true, true, true
     | true, true, true, true, true, true, true, true, true
     | true, true, true, true, true, true, true, true, true
     | true, true, true, true, true, true, true, true, true
     | true, true, true, true, true, true, true, true, true
     | true, true, true, true, true, true, true, true, true
     | true, true, true, true, true, true, true, true, true
     | true, true, true, true, true, true, true, true, true
     | true, true, true, true, true, true, true, true, true
     | true, true, true, true, true, true, true, true, true
     | true, true, true, true, true, true, true, true, true
     | true, true, true, true, true, true, true, true, true
     | true, true, true, true, true, true, true, true, true
     | true, true, true, true, true, true, true, true, true
     | true, true, true, true, true, true, true, true, true
     | true, true, true, true, true, true, true, true, true
     | true, true, true, true, true, true, true, true, true
     | true, true, true, true, true, true, true, true, true
     | true, true, true, true, true, true, true, true, true
     | true, true, true, true, true, true, true, true, true
     | true, true, true, true, true, true, true, true, true
     | true, true, true, true, true, true, true, true, true
     | true, true, true, true, true, true, true, true, true
     | true, true, true, true, true, true, true, true, true
     | true, true, true, true, true, true, true, true, true
     | true, true, true, true, true, true, true, true, true
     | true, true, true, true, true, true, true, true, true
     | true, true, true, true, true, true, true, true, true
     | true, true, true, true, true, true, true, true, true
     | true, true, true, true, true, true, true, true, true
     | true, true, true, true, true, true, true, true, true
     | true, true, true, true, true, true, true, true, true
     | true, true, true, true, true, true, true, true, true
     | true, true, true, true, true, true, true, true, true
     | true, true, true, true, true, true, true, true, true
     | true, true, true, true, true, true, true, true, true
     | true, true, true, true, true, true, true, true, true
     | true, true, true, true, true, true, true, true, true
     | true, true, true, true, true, true, true, true, true
     | true, true, true, true, true, true, true, true, true
     | true, true, true, true, true, true, true, true, true
     | true, true, true, true, true, true, true, true, true
     | true, true, true, true, true, true, true, true, true
     | true, true, true, true, true, true, true, true, true
     | true, true, true, true, true, true, true, true, true
     | true, true, true, true, true, true, true, true, true
     | true, true, true, true, true, true, true, true, true
     | true, true, true, true, true, true, true, true, true
     | true, true, true, true, true, true, true, true, true
     | true, true, true, true, true, true, true, true, true
     | true, true, true, true, true, true, true, true, true
     | true, true, true, true, true, true, true, true, true
     | true, true, true, true, true, true, true, true, true
     | true, true, true, true, true, true, true, true, true
     | true, true, true, true, true, true, true, true, true
     | true, true, true, true, true, true, true, true, true
     | true, true, true, true, true, true, true, true, true
     | true, true, true, true, true, true, true, true, true
     | true, true, true, true, true, true, true, true, true
     | true, true, true, true, true, true, true, true, true
     | true, true, true, true, true, true, true, true, true
     | true, true, true, true, true, true, true, true, true
     | true, true, true, true, true, true, true, true, true
     | true, true, true, true, true, true, true, true, true
     | true, true, true, true, true, true, true, true, true
     | true, true, true, true, true, true, true, true, true
     | true, true, true, true, true, true, true, true, true
     | true, true, true, true, true, true, true, true, true
     | true, true, true, true, true, true, true, true, true
     | true, true, true, true, true, true, true, true, true
     | true, true, true, true, true, true, true, true, true
     | true, true, true, true, true, true, true, true, true
     | true, true, true, true, true, true, true, true, true
     | true, true, true, true, true, true, true, true, true
     | true, true, true, true, true, true, true, true, true
     | true, true, true, true, true, true, true, true, true
     | true, true, true, true, true, true, true, true, true
     | true, true, true, true, true, true, true, true, true
     | true, true, true, true, true, true, true, true, true
     | true, true, true, true, true, true, true, true, true
     | true, true, true, true, true, true, true, true, true
     | true, true, true, true, true, true, true, true, true
     | true, true, true, true, true, true, true, true, true
     | true, true, true, true, true, true, true, true, true
     | true, true, true, true, true, true, true, true, true
     | true, true, true, true, true, true, true, true, true
     | true, true, true, true, true, true, true, true, true
     | true, true, true, true, true, true, true, true, true
     | true, true, true, true, true, true, true, true, true
     | true, true, true, true, true, true, true, true, true
     | true, true, true, true, true, true, true, true, true
     | true, true, true, true, true, true, true, true, true
     | true, true, true, true, true, true, true, true, true
     | true, true, true, true, true, true, true, true, true
     | true, true, true, true, true, true, true, true, true
     | true, true, true, true, true, true, true, true, true
     | true, true, true, true, true, true, true, true, true
     | true, true, true, true, true, true, true, true, true
     | true, true, true, true, true, true, true, true, true
     | true, true, true, true, true, true, true, true, true
     | true, true, true, true, true, true, true, true, true
     | true, true, true, true, true, true, true, true, true
     | true, true, true, true, true, true, true, true, true
     | true, true, true, true, true, true, true, true, true
     | true, true, true, true, true, true, true, true, true
     | true, true, true, true, true, true, true, true, true
     | true, true, true, true, true, true, true, true, true
     | true, true, true, true, true, true, true, true, true
     | true, true, true, true, true, true, true, true, true
     | true, true, true, true, true, true, true, true, true
     | true, true, true, true, true, true, true, true, true
     | true, true, true, true, true, true, true, true, true
     | true, true, true, true, true, true, true, true, true
     | true, true, true, true, true, true, true, true, true
     | true, true, true, true, true, true, true, true, true
     | true, true, true, true, true, true, true, true, true
     | true, true, true, true, true, true, true, true, true
     | true, true, true, true, true, true, true, true, true
     | true, true, true, true, true, true, true, true, true
     | true, true, true, true, true, true, true, true, true
     | true, true, true, true, true, true, true, true, true
     | true, true, true, true, true, true, true, true, true
     | true, true, true, true, true, true, true, true, true
     | true, true, true, true, true, true, true, true, true
     | true, true, true, true, true, true, true, true, true
     | true, true, true, true, true, true, true, true, true
     | true, true, true, true, true, true, true, true, true
     | true, true, true, true, true, true, true, true, true
     | true, true, true, true, true, true, true, true, true
     | true, true, true, true, true, true, true, true, true
     | true, true, true, true, true, true, true, true, true
     | true, true, true, true, true, true, true, true, true
     | true, true, true, true, true, true, true, true, true
     | true, true, true, true, true, true, true, true, true
     | true, true, true, true, true, true, true, true, true
     | true, true, true, true, true, true, true, true, true
     | true, true, true, true, true, true, true, true, true
     | true, true, true, true, true, true, true, true, true
     | true, true, true, true, true, true, true, true, true
     | true, true, true, true, true, true, true, true, true
     | true, true, true, true, true, true, true, true, true
     | true, true, true, true, true, true, true, true, true
     | true, true, true, true, true, true, true, true, true
     | true, true, true, true, true, true, true, true, true
     | true, true, true, true, true, true, true, true, true
     | true, true, true, true, true, true, true, true, true
     | true, true, true, true, true, true, true, true, true
     | true, true, true, true, true, true, true, true, true
     | true, true, true, true, true, true, true, true, true
     | true, true, true, true, true, true, true, true, true
     | true, true, true, true, true, true, true, true, true
     | true, true, true, true, true, true, true, true, true
     | true, true, true, true, true, true, true, true, true
     | true, true, true, true, true, true, true, true, true
     | true, true, true, true, true, true, true, true, true
     | true, true, true, true, true, true, true, true, true
     | true, true, true, true, true, true, true, true, true |]);
nPL = 82;
pl_u = [1, 1, 1, 28, 1, 30, 1, 2, 2, 2, 33, 2, 35, 2, 3, 3, 3, 38, 3, 40, 3, 4, 4, 4, 43, 4, 45, 4, 5, 5, 5, 48, 5, 50, 5, 6, 6, 6, 53, 6, 55, 6, 7, 7, 8, 8, 9, 9, 10, 10, 11, 11, 12, 12, 13, 13, 13, 14, 15, 15, 15, 16, 17, 17, 17, 18, 19, 19, 19, 20, 21, 21, 21, 22, 23, 23, 23, 24, 25, 25, 25, 26];
pl_v = [27, 28, 28, 29, 27, 31, 30, 32, 33, 33, 34, 32, 36, 35, 37, 38, 38, 39, 37, 41, 40, 42, 43, 43, 44, 42, 46, 45, 47, 48, 48, 49, 47, 51, 50, 52, 53, 53, 54, 52, 56, 55, 57, 57, 58, 58, 59, 59, 60, 60, 61, 61, 62, 62, 63, 64, 63, 65, 66, 67, 66, 68, 69, 70, 69, 71, 72, 73, 72, 74, 75, 76, 75, 77, 78, 79, 78, 80, 81, 82, 81, 83];
pl_rel = [3, 3, 3, 3, 3, 3, 3, 3, 3, 3, 3, 3, 3, 3, 3, 3, 3, 3, 3, 3, 3, 3, 3, 3, 3, 3, 3, 3, 3, 3, 3, 3, 3, 3, 3, 3, 3, 3, 3, 3, 3, 3, 2, 3, 2, 3, 2, 3, 2, 3, 2, 3, 2, 3, 2, 3, 3, 3, 2, 3, 3, 3, 2, 3, 3, 3, 2, 3, 3, 3, 2, 3, 3, 3, 2, 3, 3, 3, 2, 3, 3, 3];
pl_owner = [1, 1, 1, 1, 1, 1, 1, 2, 2, 2, 2, 2, 2, 2, 3, 3, 3, 3, 3, 3, 3, 4, 4, 4, 4, 4, 4, 4, 5, 5, 5, 5, 5, 5, 5, 6, 6, 6, 6, 6, 6, 6, 7, 7, 8, 8, 9, 9, 10, 10, 11, 11, 12, 12, 13, 13, 13, 14, 15, 15, 15, 16, 17, 17, 17, 18, 19, 19, 19, 20, 21, 21, 21, 22, 23, 23, 23, 24, 25, 25, 25, 26];
pl_guard = array2d(1..82, 1..9,
  [| false, false, true, false, false, false, false, false, false
     | false, false, false, true, false, false, false, false, false
     | false, false, false, false, true, false, false, false, false
     | false, false, false, false, true, false, false, false, false
     | false, false, false, false, false, false, true, false, false
     | false, false, false, false, false, false, true, false, false
     | false, false, false, false, false, false, true, false, false
     | false, false, true, false, false, false, false, false, false
     | false, false, false, true, false, false, false, false, false
     | false, false, false, false, true, false, false, false, false
     | false, false, false, false, true, false, false, false, false
     | false, false, false, false, false, false, true, false, false
     | false, false, false, false, false, false, true, false, false
     | false, false, false, false, false, false, true, false, false
     | false, false, true, false, false, false, false, false, false
     | false, false, false, true, false, false, false, false, false
     | false, false, false, false, true, false, false, false, false
     | false, false, false, false, true, false, false, false, false
     | false, false, false, false, false, false, true, false, false
     | false, false, false, false, false, false, true, false, false
     | false, false, false, false, false, false, true, false, false
     | false, false, true, false, false, false, false, false, false
     | false, false, false, true, false, false, false, false, false
     | false, false, false, false, true, false, false, false, false
     | false, false, false, false, true, false, false, false, false
     | false, false, false, false, false, false, true, false, false
     | false, false, false, false, false, false, true, false, false
     | false, false, false, false, false, false, true, false, false
     | false, false, true, false, false, false, false, false, false
     | false, false, false, true, false, false, false, false, false
     | false, false, false, false, true, false, false, false, false
     | false, false, false, false, true, false, false, false, false
     | false, false, false, false, false, false, true, false, false
     | false, false, false, false, false, false, true, false, false
     | false, false, false, false, false, false, true, false, false
     | false, false, true, false, false, false, false, false, false
     | false, false, false, true, false, false, false, false, false
     | false, false, false, false, true, false, false, false, false
     | false, false, false, false, true, false, false, false, false
     | false, false, false, false, false, false, true, false, false
     | false, false, false, false, false, false, true, false, false
     | false, false, false, false, false, false, true, false, false
     | false, true, false, false, false, false, false, false, false
     | false, false, false, false, false, false, false, false, true
     | false, true, false, false, false, false, false, false, false
     | false, false, false, false, false, false, false, false, true
     | false, true, false, false, false, false, false, false, false
     | false, false, false, false, false, false, false, false, true
     | false, true, false, false, false, false, false, false, false
     | false, false, false, false, false, false, false, false, true
     | false, true, false, false, false, false, false, false, false
     | false, false, false, false, false, false, false, false, true
     | false, true, false, false, false, false, false, false, false
     | false, false, false, false, false, false, false, false, true
     | false, true, false, false, false, false, false, false, false
     | false, false, false, false, false, false, false, true, false
     | false, false, false, false, false, false, false, false, true
     | false, false, false, false, false, false, false, true, false
     | false, true, false, false, false, false, false, false, false
     | false, false, false, false, false, false, false, true, false
     | false, false, false, false, false, false, false, false, true
     | false, false, false, false, false, false, false, true, false
     | false, true, false, false, false, false, false, false, false
     | false, false, false, false, false, false, false, true, false
     | false, false, false, false, false, false, false, false, true
     | false, false, false, false, false, false, false, true, false
     | false, true, false, false, false, false, false, false, false
     | false, false, false, false, false, false, false, true, false
     | false, false, false, false, false, false, false, false, true
     | false, false, false, false, false, false, false, true, false
     | false, true, false, false, false, false, false, false, false
     | false, false, false, false, false, false, false, true, false
     | false, false, false, false, false, false, false, false, true
     | false, false, false, false, false, false, false, true, false
     | false, true, false, false, false, false, false, false, false
     | false, false, false, false, false, false, false, true, false
     | false, false, false, false, false, false, false, false, true
     | false, false, false, false, false, false, false, true, false
     | false, true, false, false, false, false, false, false, false
     | false, false, false, false, false, false, false, true, false
     | false, false, false, false, false, false, false, false, true
     | false, false, false, false, false, false, false, true, false |]);

% ---- TDMA communication ----
nCh = 0;
ch_src = [1]; ch_dst = [1]; ch_msgsize = [0]; ch_app = [1];
ch_block = [1]; ch_send = [1]; ch_rec = [1]; ch_slots_needed = [1];
ch_direct_tok = [0];
ch_rounds = array2d(1..1, 0..8, [0, 0, 0, 0, 0, 0, 0, 0, 0]);
tdma_slots = 8;
tdma_cycle_len = 1;
data_per_slot = 32;
max_buf = 4;
ni_capacity = 100000;
nSep = 0;  sep_a = [1];  sep_b = [1];
comm_sil_mode = 0;
comm_actor = [false, false, false, false, false, false, false, false, false, false, false, false, false, false, false, false, false, false, false, false, false, false, false, false, false, false, false, false, false, false, false, false, false, false, false, false, false, false, false, false, false, false, false, false, false, false, false, false, false, false, false, false, false, false, false, false, false, false, false, false, false, false, false, false, false, false, false, false, false, false, false, false, false, false, false, false, false, false, false, false, false, false, false];
