% Generated by SafeDSE build_dzn.py -- do not edit by hand.
% applications : g
% platform     : synthetic_3type
% period mode  : global
% fault model  : random_hw
% cost profile : myklebust2015  [100, 113, 225, 518, 906]

% ---- applications ----
nApps = 1;
n = 102;
app = [1, 1, 1, 1, 1, 1, 1, 1, 1, 1, 1, 1, 1, 1, 1, 1, 1, 1, 1, 1, 1, 1, 1, 1, 1, 1, 1, 1, 1, 1, 1, 1, 1, 1, 1, 1, 1, 1, 1, 1, 1, 1, 1, 1, 1, 1, 1, 1, 1, 1, 1, 1, 1, 1, 1, 1, 1, 1, 1, 1, 1, 1, 1, 1, 1, 1, 1, 1, 1, 1, 1, 1, 1, 1, 1, 1, 1, 1, 1, 1, 1, 1, 1, 1, 1, 1, 1, 1, 1, 1, 1, 1, 1, 1, 1, 1, 1, 1, 1, 1, 1, 1];
nParents = 102;
parent = [1, 2, 3, 4, 5, 6, 7, 8, 9, 10, 11, 12, 13, 14, 15, 16, 17, 18, 19, 20, 21, 22, 23, 24, 25, 26, 27, 28, 29, 30, 31, 32, 33, 34, 35, 36, 37, 38, 39, 40, 41, 42, 43, 44, 45, 46, 47, 48, 49, 50, 51, 52, 53, 54, 55, 56, 57, 58, 59, 60, 61, 62, 63, 64, 65, 66, 67, 68, 69, 70, 71, 72, 73, 74, 75, 76, 77, 78, 79, 80, 81, 82, 83, 84, 85, 86, 87, 88, 89, 90, 91, 92, 93, 94, 95, 96, 97, 98, 99, 100, 101, 102];
copy_index = [0, 0, 0, 0, 0, 0, 0, 0, 0, 0, 0, 0, 0, 0, 0, 0, 0, 0, 0, 0, 0, 0, 0, 0, 0, 0, 0, 0, 0, 0, 0, 0, 0, 0, 0, 0, 0, 0, 0, 0, 0, 0, 0, 0, 0, 0, 0, 0, 0, 0, 0, 0, 0, 0, 0, 0, 0, 0, 0, 0, 0, 0, 0, 0, 0, 0, 0, 0, 0, 0, 0, 0, 0, 0, 0, 0, 0, 0, 0, 0, 0, 0, 0, 0, 0, 0, 0, 0, 0, 0, 0, 0, 0, 0, 0, 0, 0, 0, 0, 0, 0, 0];
node_name = ["g.a0", "g.a1", "g.a2", "g.a3", "g.a4", "g.a5", "g.a6", "g.a7", "g.a8", "g.a9", "g.a10", "g.a11", "g.a12", "g.a13", "g.a14", "g.a15", "g.a16", "g.a17", "g.a18", "g.a19", "g.a20", "g.a21", "g.a22", "g.a23", "g.a24", "g.a25", "g.a26", "g.a27", "g.a28", "g.a29", "g.a30", "g.a0~0", "g.a0~1", "g.a0~2", "g.a0~3", "g.a0~4", "g.a1~0", "g.a1~1", "g.a1~2", "g.a1~3", "g.a1~4", "g.a2~0", "g.a2~1", "g.a2~2", "g.a2~3", "g.a2~4", "g.a3~0", "g.a3~1", "g.a3~2", "g.a3~3", "g.a3~4", "g.a4~0", "g.a4~1", "g.a4~2", "g.a4~3", "g.a4~4", "g.a5~0", "g.a5~1", "g.a5~2", "g.a5~3", "g.a5~4", "g.a6~0", "g.a6~1", "g.a6~2", "g.a6~3", "g.a6~4", "g.a7~0", "g.a7~1", "g.a7~2", "g.a7~3", "g.a7~4", "g.a8~0", "g.a9~0", "g.a10~0", "g.a11~0", "g.a12~0", "g.a13~0", "g.a14~0", "g.a15~0", "g.a16~0", "g.a16~1", "g.a17~0", "g.a18~0", "g.a18~1", "g.a19~0", "g.a20~0", "g.a20~1", "g.a21~0", "g.a22~0", "g.a22~1", "g.a23~0", "g.a24~0", "g.a24~1", "g.a25~0", "g.a26~0", "g.a26~1", "g.a27~0", "g.a28~0", "g.a28~1", "g.a29~0", "g.a30~0", "g.a30~1"];
parent_name = ["g.a0", "g.a1", "g.a2", "g.a3", "g.a4", "g.a5", "g.a6", "g.a7", "g.a8", "g.a9", "g.a10", "g.a11", "g.a12", "g.a13", "g.a14", "g.a15", "g.a16", "g.a17", "g.a18", "g.a19", "g.a20", "g.a21", "g.a22", "g.a23", "g.a24", "g.a25", "g.a26", "g.a27", "g.a28", "g.a29", "g.a30", "g.a0~0", "g.a0~1", "g.a0~2", "g.a0~3", "g.a0~4", "g.a1~0", "g.a1~1", "g.a1~2", "g.a1~3", "g.a1~4", "g.a2~0", "g.a2~1", "g.a2~2", "g.a2~3", "g.a2~4", "g.a3~0", "g.a3~1", "g.a3~2", "g.a3~3", "g.a3~4", "g.a4~0", "g.a4~1", "g.a4~2", "g.a4~3", "g.a4~4", "g.a5~0", "g.a5~1", "g.a5~2", "g.a5~3", "g.a5~4", "g.a6~0", "g.a6~1", "g.a6~2", "g.a6~3", "g.a6~4", "g.a7~0", "g.a7~1", "g.a7~2", "g.a7~3", "g.a7~4", "g.a8~0", "g.a9~0", "g.a10~0", "g.a11~0", "g.a12~0", "g.a13~0", "g.a14~0", "g.a15~0", "g.a16~0", "g.a16~1", "g.a17~0", "g.a18~0", "g.a18~1", "g.a19~0", "g.a20~0", "g.a20~1", "g.a21~0", "g.a22~0", "g.a22~1", "g.a23~0", "g.a24~0", "g.a24~1", "g.a25~0", "g.a26~0", "g.a26~1", "g.a27~0", "g.a28~0", "g.a28~1", "g.a29~0", "g.a30~0", "g.a30~1"];
tok = array2d(1..102, 1..102,
  [| 1, 0, -1, 1, -1, -1, -1, -1, -1, -1, -1, -1, -1, -1, -1, -1, -1, -1, -1, -1, -1, -1, -1, -1, -1, -1, -1, -1, -1, -1, -1, 0, 0, 0, -1, -1, 0, 0, 0, 0, 0, -1, -1, -1, -1, -1, 1, 1, 1, 1, 1, -1, -1, -1, -1, -1, -1, -1, -1, -1, -1, -1, -1, -1, -1, -1, -1, -1, -1, -1, -1, -1, -1, -1, -1, -1, -1, -1, -1, -1, -1, -1, -1, -1, -1, -1, -1, -1, -1, -1, -1, -1, -1, -1, -1, -1, -1, -1, -1, -1, -1, -1
       | -1, 1, -1, -1, 0, -1, -1, -1, -1, 0, -1, -1, -1, -1, -1, -1, -1, -1, -1, -1, -1, -1, -1, -1, -1, -1, -1, -1, -1, -1, -1, -1, -1, -1, -1, -1, 0, 0, 0, -1, -1, -1, -1, -1, -1, -1, -1, -1, -1, -1, -1, 0, 0, 0, 0, 0, -1, -1, -1, -1, -1, -1, -1, -1, -1, -1, -1, -1, -1, -1, -1, -1, 0, -1, -1, -1, -1, -1, -1, -1, -1, -1, -1, -1, -1, -1, -1, -1, -1, -1, -1, -1, -1, -1, -1, -1, -1, -1, -1, -1, -1, -1
       | 1, -1, 1, -1, -1, -1, -1, -1, -1, -1, -1, -1, -1, -1, -1, -1, -1, -1, -1, -1, -1, -1, -1, -1, -1, -1, -1, -1, -1, -1, -1, 1, 1, 1, 1, 1, -1, -1, -1, -1, -1, 0, 0, 0, -1, -1, -1, -1, -1, -1, -1, -1, -1, -1, -1, -1, -1, -1, -1, -1, -1, -1, -1, -1, -1, -1, -1, -1, -1, -1, -1, -1, -1, -1, -1, -1, -1, -1, -1, -1, -1, -1, -1, -1, -1, -1, -1, -1, -1, -1, -1, -1, -1, -1, -1, -1, -1, -1, -1, -1, -1, -1
       | -1, -1, -1, 1, -1, -1, -1, -1, 0, -1, -1, -1, -1, -1, -1, -1, -1, -1, -1, -1, -1, -1, -1, -1, -1, -1, -1, -1, -1, -1, -1, -1, -1, -1, -1, -1, -1, -1, -1, -1, -1, -1, -1, -1, -1, -1, 0, 0, 0, -1, -1, -1, -1, -1, -1, -1, -1, -1, -1, -1, -1, -1, -1, -1, -1, -1, -1, -1, -1, -1, -1, 0, -1, -1, -1, -1, -1, -1, -1, -1, -1, -1, -1, -1, -1, -1, -1, -1, -1, -1, -1, -1, -1, -1, -1, -1, -1, -1, -1, -1, -1, -1
       | -1, -1, -1, -1, 1, -1, -1, -1, -1, -1, -1, -1, -1, -1, -1, -1, 0, -1, -1, -1, -1, -1, -1, -1, 1, -1, 1, -1, -1, -1, -1, -1, -1, -1, -1, -1, -1, -1, -1, -1, -1, -1, -1, -1, -1, -1, -1, -1, -1, -1, -1, 0, 0, 0, -1, -1, -1, -1, -1, -1, -1, -1, -1, -1, -1, -1, -1, -1, -1, -1, -1, -1, -1, -1, -1, -1, -1, -1, -1, 0, 0, -1, -1, -1, -1, -1, -1, -1, -1, -1, -1, 1, 1, -1, 1, 1, -1, -1, -1, -1, -1, -1
       | -1, -1, -1, 1, -1, 1, -1, 0, -1, -1, -1, -1, -1, -1, -1, -1, -1, -1, -1, -1, -1, -1, -1, -1, -1, -1, -1, -1, -1, -1, -1, -1, -1, -1, -1, -1, -1, -1, -1, -1, -1, -1, -1, -1, -1, -1, 1, 1, 1, 1, 1, -1, -1, -1, -1, -1, 0, 0, 0, -1, -1, -1, -1, -1, -1, -1, 0, 0, 0, 0, 0, -1, -1, -1, -1, -1, -1, -1, -1, -1, -1, -1, -1, -1, -1, -1, -1, -1, -1, -1, -1, -1, -1, -1, -1, -1, -1, -1, -1, -1, -1, -1
       | -1, -1, -1, -1, -1, 0, 1, -1, -1, -1, -1, -1, -1, -1, -1, -1, -1, -1, -1, -1, -1, -1, -1, -1, -1, -1, -1, -1, -1, -1, -1, -1, -1, -1, -1, -1, -1, -1, -1, -1, -1, -1, -1, -1, -1, -1, -1, -1, -1, -1, -1, -1, -1, -1, -1, -1, 0, 0, 0, 0, 0, 0, 0, 0, -1, -1, -1, -1, -1, -1, -1, -1, -1, -1, -1, -1, -1, -1, -1, -1, -1, -1, -1, -1, -1, -1, -1, -1, -1, -1, -1, -1, -1, -1, -1, -1, -1, -1, -1, -1, -1, -1
       | -1, -1, -1, -1, -1, -1, -1, 1, -1, -1, -1, -1, -1, -1, -1, 1, -1, -1, -1, -1, -1, 1, -1, -1, -1, -1, -1, -1, -1, -1, -1, -1, -1, -1, -1, -1, -1, -1, -1, -1, -1, -1, -1, -1, -1, -1, -1, -1, -1, -1, -1, -1, -1, -1, -1, -1, -1, -1, -1, -1, -1, -1, -1, -1, -1, -1, 0, 0, 0, -1, -1, -1, -1, -1, -1, -1, -1, -1, 1, -1, -1, -1, -1, -1, -1, -1, -1, 1, -1, -1, -1, -1, -1, -1, -1, -1, -1, -1, -1, -1, -1, -1
       | -1, -1, -1, -1, -1, -1, -1, -1, 1, -1, -1, -1, -1, -1, -1, -1, -1, -1, -1, -1, -1, -1, -1, -1, -1, -1, -1, -1, -1, -1, 0, -1, -1, -1, -1, -1, -1, -1, -1, -1, -1, -1, -1, -1, -1, -1, -1, -1, -1, -1, -1, -1, -1, -1, -1, -1, -1, -1, -1, -1, -1, -1, -1, -1, -1, -1, -1, -1, -1, -1, -1, 0, -1, -1, -1, -1, -1, -1, -1, -1, -1, -1, -1, -1, -1, -1, -1, -1, -1, -1, -1, -1, -1, -1, -1, -1, -1, -1, -1, -1, 0, 0
       | -1, -1, -1, -1, -1, -1, -1, -1, -1, 1, 0, 0, -1, -1, -1, -1, -1, -1, -1, -1, -1, -1, -1, -1, -1, -1, -1, -1, -1, -1, -1, -1, -1, -1, -1, -1, -1, -1, -1, -1, -1, -1, -1, -1, -1, -1, -1, -1, -1, -1, -1, -1, -1, -1, -1, -1, -1, -1, -1, -1, -1, -1, -1, -1, -1, -1, -1, -1, -1, -1, -1, -1, 0, 0, 0, -1, -1, -1, -1, -1, -1, -1, -1, -1, -1, -1, -1, -1, -1, -1, -1, -1, -1, -1, -1, -1, -1, -1, -1, -1, -1, -1
       | -1, -1, -1, -1, -1, -1, -1, -1, 1, -1, 1, -1, -1, -1, -1, -1, -1, -1, -1, -1, -1, -1, -1, -1, -1, 0, -1, -1, -1, -1, -1, -1, -1, -1, -1, -1, -1, -1, -1, -1, -1, -1, -1, -1, -1, -1, -1, -1, -1, -1, -1, -1, -1, -1, -1, -1, -1, -1, -1, -1, -1, -1, -1, -1, -1, -1, -1, -1, -1, -1, -1, 1, -1, 0, -1, -1, -1, -1, -1, -1, -1, -1, -1, -1, -1, -1, -1, -1, -1, -1, -1, -1, -1, 0, -1, -1, -1, -1, -1, -1, -1, -1
       | -1, -1, -1, -1, -1, -1, -1, -1, -1, -1, -1, 1, -1, -1, -1, -1, -1, -1, 1, -1, -1, -1, -1, -1, -1, -1, -1, -1, -1, -1, -1, -1, -1, -1, -1, -1, -1, -1, -1, -1, -1, -1, -1, -1, -1, -1, -1, -1, -1, -1, -1, -1, -1, -1, -1, -1, -1, -1, -1, -1, -1, -1, -1, -1, -1, -1, -1, -1, -1, -1, -1, -1, -1, -1, 0, -1, -1, -1, -1, -1, -1, -1, 1, 1, -1, -1, -1, -1, -1, -1, -1, -1, -1, -1, -1, -1, -1, -1, -1, -1, -1, -1
       | -1, -1, 0, -1, -1, -1, -1, -1, -1, -1, -1, -1, 1, -1, -1, -1, -1, -1, -1, -1, -1, -1, -1, -1, -1, -1, -1, -1, -1, -1, -1, -1, -1, -1, -1, -1, -1, -1, -1, -1, -1, 0, 0, 0, 0, 0, -1, -1, -1, -1, -1, -1, -1, -1, -1, -1, -1, -1, -1, -1, -1, -1, -1, -1, -1, -1, -1, -1, -1, -1, -1, -1, -1, -1, -1, 0, -1, -1, -1, -1, -1, -1, -1, -1, -1, -1, -1, -1, -1, -1, -1, -1, -1, -1, -1, -1, -1, -1, -1, -1, -1, -1
       | -1, -1, -1, -1, -1, -1, 0, -1, -1, -1, -1, -1, -1, 1, -1, -1, -1, -1, -1, -1, 0, -1, -1, -1, -1, -1, -1, -1, -1, -1, -1, -1, -1, -1, -1, -1, -1, -1, -1, -1, -1, -1, -1, -1, -1, -1, -1, -1, -1, -1, -1, -1, -1, -1, -1, -1, -1, -1, -1, -1, -1, 0, 0, 0, 0, 0, -1, -1, -1, -1, -1, -1, -1, -1, -1, -1, 0, -1, -1, -1, -1, -1, -1, -1, -1, 0, 0, -1, -1, -1, -1, -1, -1, -1, -1, -1, -1, -1, -1, -1, -1, -1
       | -1, -1, -1, -1, -1, -1, -1, -1, -1, -1, -1, -1, -1, 1, 1, -1, -1, -1, -1, -1, -1, -1, -1, -1, -1, -1, -1, 0, -1, -1, -1, -1, -1, -1, -1, -1, -1, -1, -1, -1, -1, -1, -1, -1, -1, -1, -1, -1, -1, -1, -1, -1, -1, -1, -1, -1, -1, -1, -1, -1, -1, -1, -1, -1, -1, -1, -1, -1, -1, -1, -1, -1, -1, -1, -1, -1, 1, 0, -1, -1, -1, -1, -1, -1, -1, -1, -1, -1, -1, -1, -1, -1, -1, -1, -1, -1, 0, -1, -1, -1, -1, -1
       | -1, -1, 0, -1, -1, -1, -1, -1, -1, -1, -1, -1, -1, -1, -1, 1, -1, -1, -1, -1, -1, 0, -1, -1, -1, -1, 1, -1, 0, -1, -1, -1, -1, -1, -1, -1, -1, -1, -1, -1, -1, 0, 0, 0, 0, 0, -1, -1, -1, -1, -1, -1, -1, -1, -1, -1, -1, -1, -1, -1, -1, -1, -1, -1, -1, -1, -1, -1, -1, -1, -1, -1, -1, -1, -1, -1, -1, -1, 0, -1, -1, -1, -1, -1, -1, -1, -1, 0, -1, -1, -1, -1, -1, -1, 1, 1, -1, 0, 0, -1, -1, -1
       | -1, -1, -1, -1, -1, -1, -1, -1, -1, -1, -1, -1, -1, 1, -1, -1, 1, -1, -1, -1, -1, -1, -1, -1, 1, -1, -1, -1, -1, -1, -1, -1, -1, -1, -1, -1, -1, -1, -1, -1, -1, -1, -1, -1, -1, -1, -1, -1, -1, -1, -1, -1, -1, -1, -1, -1, -1, -1, -1, -1, -1, -1, -1, -1, -1, -1, -1, -1, -1, -1, -1, -1, -1, -1, -1, -1, 1, -1, -1, 0, -1, -1, -1, -1, -1, -1, -1, -1, -1, -1, -1, 1, 1, -1, -1, -1, -1, -1, -1, -1, -1, -1
       | -1, -1, -1, -1, -1, -1, -1, -1, -1, -1, -1, -1, 0, -1, -1, -1, -1, 1, -1, -1, -1, -1, -1, -1, -1, -1, -1, -1, -1, -1, -1, -1, -1, -1, -1, -1, -1, -1, -1, -1, -1, -1, -1, -1, -1, -1, -1, -1, -1, -1, -1, -1, -1, -1, -1, -1, -1, -1, -1, -1, -1, -1, -1, -1, -1, -1, -1, -1, -1, -1, -1, -1, -1, -1, -1, 0, -1, -1, -1, -1, -1, -1, -1, -1, -1, -1, -1, -1, -1, -1, -1, -1, -1, -1, -1, -1, -1, -1, -1, -1, -1, -1
       | -1, -1, -1, 1, -1, -1, -1, -1, -1, -1, -1, -1, -1, -1, -1, -1, -1, -1, 1, -1, -1, -1, -1, -1, -1, -1, -1, -1, -1, -1, -1, -1, -1, -1, -1, -1, -1, -1, -1, -1, -1, -1, -1, -1, -1, -1, 1, 1, 1, 1, 1, -1, -1, -1, -1, -1, -1, -1, -1, -1, -1, -1, -1, -1, -1, -1, -1, -1, -1, -1, -1, -1, -1, -1, -1, -1, -1, -1, -1, -1, -1, -1, 0, -1, -1, -1, -1, -1, -1, -1, -1, -1, -1, -1, -1, -1, -1, -1, -1, -1, -1, -1
       | -1, -1, -1, 0, -1, -1, -1, -1, -1, -1, -1, -1, -1, -1, -1, -1, -1, -1, -1, 1, -1, -1, -1, -1, -1, -1, -1, -1, -1, -1, -1, -1, -1, -1, -1, -1, -1, -1, -1, -1, -1, -1, -1, -1, -1, -1, 0, 0, 0, 0, 0, -1, -1, -1, -1, -1, -1, -1, -1, -1, -1, -1, -1, -1, -1, -1, -1, -1, -1, -1, -1, -1, -1, -1, -1, -1, -1, -1, -1, -1, -1, -1, -1, -1, -1, -1, -1, -1, -1, -1, -1, -1, -1, -1, -1, -1, -1, -1, -1, -1, -1, -1
       | -1, -1, 0, -1, -1, -1, -1, -1, -1, -1, -1, -1, -1, -1, -1, 0, -1, -1, -1, -1, 1, -1, -1, -1, -1, -1, -1, -1, -1, -1, -1, -1, -1, -1, -1, -1, -1, -1, -1, -1, -1, 0, 0, 0, 0, 0, -1, -1, -1, -1, -1, -1, -1, -1, -1, -1, -1, -1, -1, -1, -1, -1, -1, -1, -1, -1, -1, -1, -1, -1, -1, -1, -1, -1, -1, -1, -1, -1, 0, -1, -1, -1, -1, -1, -1, 0, -1, -1, -1, -1, -1, -1, -1, -1, -1, -1, -1, -1, -1, -1, -1, -1
       | -1, -1, -1, -1, -1, -1, -1, -1, -1, -1, -1, -1, -1, -1, -1, -1, -1, -1, -1, 1, -1, 1, 1, -1, -1, -1, -1, -1, -1, -1, -1, -1, -1, -1, -1, -1, -1, -1, -1, -1, -1, -1, -1, -1, -1, -1, -1, -1, -1, -1, -1, -1, -1, -1, -1, -1, -1, -1, -1, -1, -1, -1, -1, -1, -1, -1, -1, -1, -1, -1, -1, -1, -1, -1, -1, -1, -1, -1, -1, -1, -1, -1, -1, -1, 1, -1, -1, -1, 1, 1, -1, -1, -1, -1, -1, -1, -1, -1, -1, -1, -1, -1
       | -1, -1, -1, -1, -1, -1, -1, -1, -1, -1, -1, -1, -1, -1, 0, -1, -1, -1, 0, -1, -1, -1, 1, -1, -1, -1, -1, -1, -1, -1, -1, -1, -1, -1, -1, -1, -1, -1, -1, -1, -1, -1, -1, -1, -1, -1, -1, -1, -1, -1, -1, -1, -1, -1, -1, -1, -1, -1, -1, -1, -1, -1, -1, -1, -1, -1, -1, -1, -1, -1, -1, -1, -1, -1, -1, -1, -1, 0, -1, -1, -1, -1, 0, 0, -1, -1, -1, -1, 0, -1, -1, -1, -1, -1, -1, -1, -1, -1, -1, -1, -1, -1
       | -1, -1, -1, -1, -1, -1, -1, -1, -1, -1, -1, -1, -1, -1, -1, 0, -1, -1, -1, -1, -1, -1, -1, 1, -1, -1, -1, -1, -1, -1, -1, -1, -1, -1, -1, -1, -1, -1, -1, -1, -1, -1, -1, -1, -1, -1, -1, -1, -1, -1, -1, -1, -1, -1, -1, -1, -1, -1, -1, -1, -1, -1, -1, -1, -1, -1, -1, -1, -1, -1, -1, -1, -1, -1, -1, -1, -1, -1, 0, -1, -1, -1, -1, -1, -1, -1, -1, -1, -1, -1, -1, -1, -1, -1, -1, -1, -1, -1, -1, -1, -1, -1
       | -1, -1, -1, -1, -1, -1, -1, -1, -1, -1, -1, -1, -1, 0, -1, -1, -1, -1, -1, -1, -1, -1, -1, 1, 1, -1, -1, -1, -1, -1, -1, -1, -1, -1, -1, -1, -1, -1, -1, -1, -1, -1, -1, -1, -1, -1, -1, -1, -1, -1, -1, -1, -1, -1, -1, -1, -1, -1, -1, -1, -1, -1, -1, -1, -1, -1, -1, -1, -1, -1, -1, -1, -1, -1, -1, -1, 0, -1, -1, -1, -1, -1, -1, -1, -1, -1, -1, -1, -1, -1, 1, 0, -1, -1, -1, -1, -1, -1, -1, -1, -1, -1
       | -1, -1, -1, -1, -1, -1, -1, -1, -1, -1, -1, -1, -1, -1, -1, -1, 0, -1, -1, -1, -1, -1, 1, -1, -1, 1, -1, -1, -1, -1, -1, -1, -1, -1, -1, -1, -1, -1, -1, -1, -1, -1, -1, -1, -1, -1, -1, -1, -1, -1, -1, -1, -1, -1, -1, -1, -1, -1, -1, -1, -1, -1, -1, -1, -1, -1, -1, -1, -1, -1, -1, -1, -1, -1, -1, -1, -1, -1, -1, 0, 0, -1, -1, -1, -1, -1, -1, -1, 1, 1, -1, -1, -1, -1, -1, -1, -1, -1, -1, -1, -1, -1
       | -1, -1, -1, -1, -1, -1, -1, -1, -1, -1, -1, -1, -1, -1, 0, -1, -1, -1, -1, -1, -1, -1, -1, -1, 0, -1, 1, -1, 0, -1, -1, -1, -1, -1, -1, -1, -1, -1, -1, -1, -1, -1, -1, -1, -1, -1, -1, -1, -1, -1, -1, -1, -1, -1, -1, -1, -1, -1, -1, -1, -1, -1, -1, -1, -1, -1, -1, -1, -1, -1, -1, -1, -1, -1, -1, -1, -1, 0, -1, -1, -1, -1, -1, -1, -1, -1, -1, -1, -1, -1, -1, 0, 0, -1, 0, -1, -1, 0, 0, -1, -1, -1
       | -1, -1, -1, -1, -1, -1, -1, -1, -1, -1, -1, -1, -1, -1, -1, 1, -1, -1, -1, -1, -1, -1, -1, -1, -1, -1, -1, 1, -1, 0, -1, -1, -1, -1, -1, -1, -1, -1, -1, -1, -1, -1, -1, -1, -1, -1, -1, -1, -1, -1, -1, -1, -1, -1, -1, -1, -1, -1, -1, -1, -1, -1, -1, -1, -1, -1, -1, -1, -1, -1, -1, -1, -1, -1, -1, -1, -1, -1, 1, -1, -1, -1, -1, -1, -1, -1, -1, -1, -1, -1, -1, -1, -1, -1, -1, -1, -1, -1, -1, 0, -1, -1
       | -1, -1, -1, -1, 0, -1, -1, -1, -1, -1, -1, -1, -1, -1, -1, -1, -1, -1, -1, -1, -1, -1, -1, -1, -1, -1, -1, -1, 1, -1, -1, -1, -1, -1, -1, -1, -1, -1, -1, -1, -1, -1, -1, -1, -1, -1, -1, -1, -1, -1, -1, 0, 0, 0, 0, 0, -1, -1, -1, -1, -1, -1, -1, -1, -1, -1, -1, -1, -1, -1, -1, -1, -1, -1, -1, -1, -1, -1, -1, -1, -1, -1, -1, -1, -1, -1, -1, -1, -1, -1, -1, -1, -1, -1, -1, -1, -1, 0, -1, -1, -1, -1
       | -1, -1, -1, -1, -1, -1, -1, -1, -1, -1, -1, -1, -1, -1, -1, -1, -1, 1, -1, -1, -1, -1, -1, -1, -1, -1, -1, -1, -1, 1, 1, -1, -1, -1, -1, -1, -1, -1, -1, -1, -1, -1, -1, -1, -1, -1, -1, -1, -1, -1, -1, -1, -1, -1, -1, -1, -1, -1, -1, -1, -1, -1, -1, -1, -1, -1, -1, -1, -1, -1, -1, -1, -1, -1, -1, -1, -1, -1, -1, -1, -1, 1, -1, -1, -1, -1, -1, -1, -1, -1, -1, -1, -1, -1, -1, -1, -1, -1, -1, -1, 1, 1
       | -1, -1, -1, -1, -1, -1, -1, -1, -1, -1, -1, -1, -1, -1, 0, -1, -1, -1, -1, -1, -1, -1, -1, -1, -1, -1, -1, -1, -1, -1, 1, -1, -1, -1, -1, -1, -1, -1, -1, -1, -1, -1, -1, -1, -1, -1, -1, -1, -1, -1, -1, -1, -1, -1, -1, -1, -1, -1, -1, -1, -1, -1, -1, -1, -1, -1, -1, -1, -1, -1, -1, -1, -1, -1, -1, -1, -1, 0, -1, -1, -1, -1, -1, -1, -1, -1, -1, -1, -1, -1, -1, -1, -1, -1, -1, -1, -1, -1, -1, -1, 0, -1
       | 1, -1, -1, -1, -1, -1, -1, -1, -1, -1, -1, -1, -1, -1, -1, -1, -1, -1, -1, -1, -1, -1, -1, -1, -1, -1, -1, -1, -1, -1, -1, 1, -1, -1, -1, -1, -1, -1, -1, -1, -1, -1, -1, -1, -1, -1, -1, -1, -1, -1, -1, -1, -1, -1, -1, -1, -1, -1, -1, -1, -1, -1, -1, -1, -1, -1, -1, -1, -1, -1, -1, -1, -1, -1, -1, -1, -1, -1, -1, -1, -1, -1, -1, -1, -1, -1, -1, -1, -1, -1, -1, -1, -1, -1, -1, -1, -1, -1, -1, -1, -1, -1
       | 1, -1, -1, -1, -1, -1, -1, -1, -1, -1, -1, -1, -1, -1, -1, -1, -1, -1, -1, -1, -1, -1, -1, -1, -1, -1, -1, -1, -1, -1, -1, -1, 1, 1, -1, -1, -1, -1, -1, -1, -1, -1, -1, -1, -1, -1, -1, -1, -1, -1, -1, -1, -1, -1, -1, -1, -1, -1, -1, -1, -1, -1, -1, -1, -1, -1, -1, -1, -1, -1, -1, -1, -1, -1, -1, -1, -1, -1, -1, -1, -1, -1, -1, -1, -1, -1, -1, -1, -1, -1, -1, -1, -1, -1, -1, -1, -1, -1, -1, -1, -1, -1
       | -1, -1, -1, -1, -1, -1, -1, -1, -1, -1, -1, -1, -1, -1, -1, -1, -1, -1, -1, -1, -1, -1, -1, -1, -1, -1, -1, -1, -1, -1, -1, -1, 1, 1, -1, -1, -1, -1, -1, -1, -1, -1, -1, -1, -1, -1, -1, -1, -1, -1, -1, -1, -1, -1, -1, -1, -1, -1, -1, -1, -1, -1, -1, -1, -1, -1, -1, -1, -1, -1, -1, -1, -1, -1, -1, -1, -1, -1, -1, -1, -1, -1, -1, -1, -1, -1, -1, -1, -1, -1, -1, -1, -1, -1, -1, -1, -1, -1, -1, -1, -1, -1
       | 1, -1, -1, -1, -1, -1, -1, -1, -1, -1, -1, -1, -1, -1, -1, -1, -1, -1, -1, -1, -1, -1, -1, -1, -1, -1, -1, -1, -1, -1, -1, -1, -1, -1, 1, 0, -1, -1, -1, -1, -1, -1, -1, -1, -1, -1, -1, -1, -1, -1, -1, -1, -1, -1, -1, -1, -1, -1, -1, -1, -1, -1, -1, -1, -1, -1, -1, -1, -1, -1, -1, -1, -1, -1, -1, -1, -1, -1, -1, -1, -1, -1, -1, -1, -1, -1, -1, -1, -1, -1, -1, -1, -1, -1, -1, -1, -1, -1, -1, -1, -1, -1
       | -1, -1, -1, -1, -1, -1, -1, -1, -1, -1, -1, -1, -1, -1, -1, -1, -1, -1, -1, -1, -1, -1, -1, -1, -1, -1, -1, -1, -1, -1, -1, -1, -1, -1, 1, 1, -1, -1, -1, -1, -1, -1, -1, -1, -1, -1, -1, -1, -1, -1, -1, -1, -1, -1, -1, -1, -1, -1, -1, -1, -1, -1, -1, -1, -1, -1, -1, -1, -1, -1, -1, -1, -1, -1, -1, -1, -1, -1, -1, -1, -1, -1, -1, -1, -1, -1, -1, -1, -1, -1, -1, -1, -1, -1, -1, -1, -1, -1, -1, -1, -1, -1
       | -1, 1, -1, -1, -1, -1, -1, -1, -1, -1, -1, -1, -1, -1, -1, -1, -1, -1, -1, -1, -1, -1, -1, -1, -1, -1, -1, -1, -1, -1, -1, -1, -1, -1, -1, -1, 1, -1, -1, -1, -1, -1, -1, -1, -1, -1, -1, -1, -1, -1, -1, -1, -1, -1, -1, -1, -1, -1, -1, -1, -1, -1, -1, -1, -1, -1, -1, -1, -1, -1, -1, -1, -1, -1, -1, -1, -1, -1, -1, -1, -1, -1, -1, -1, -1, -1, -1, -1, -1, -1, -1, -1, -1, -1, -1, -1, -1, -1, -1, -1, -1, -1
       | -1, 1, -1, -1, -1, -1, -1, -1, -1, -1, -1, -1, -1, -1, -1, -1, -1, -1, -1, -1, -1, -1, -1, -1, -1, -1, -1, -1, -1, -1, -1, -1, -1, -1, -1, -1, -1, 1, 1, -1, -1, -1, -1, -1, -1, -1, -1, -1, -1, -1, -1, -1, -1, -1, -1, -1, -1, -1, -1, -1, -1, -1, -1, -1, -1, -1, -1, -1, -1, -1, -1, -1, -1, -1, -1, -1, -1, -1, -1, -1, -1, -1, -1, -1, -1, -1, -1, -1, -1, -1, -1, -1, -1, -1, -1, -1, -1, -1, -1, -1, -1, -1
       | -1, -1, -1, -1, -1, -1, -1, -1, -1, -1, -1, -1, -1, -1, -1, -1, -1, -1, -1, -1, -1, -1, -1, -1, -1, -1, -1, -1, -1, -1, -1, -1, -1, -1, -1, -1, -1, 1, 1, -1, -1, -1, -1, -1, -1, -1, -1, -1, -1, -1, -1, -1, -1, -1, -1, -1, -1, -1, -1, -1, -1, -1, -1, -1, -1, -1, -1, -1, -1, -1, -1, -1, -1, -1, -1, -1, -1, -1, -1, -1, -1, -1, -1, -1, -1, -1, -1, -1, -1, -1, -1, -1, -1, -1, -1, -1, -1, -1, -1, -1, -1, -1
       | -1, 1, -1, -1, -1, -1, -1, -1, -1, -1, -1, -1, -1, -1, -1, -1, -1, -1, -1, -1, -1, -1, -1, -1, -1, -1, -1, -1, -1, -1, -1, -1, -1, -1, -1, -1, -1, -1, -1, 1, 0, -1, -1, -1, -1, -1, -1, -1, -1, -1, -1, -1, -1, -1, -1, -1, -1, -1, -1, -1, -1, -1, -1, -1, -1, -1, -1, -1, -1, -1, -1, -1, -1, -1, -1, -1, -1, -1, -1, -1, -1, -1, -1, -1, -1, -1, -1, -1, -1, -1, -1, -1, -1, -1, -1, -1, -1, -1, -1, -1, -1, -1
       | -1, -1, -1, -1, -1, -1, -1, -1, -1, -1, -1, -1, -1, -1, -1, -1, -1, -1, -1, -1, -1, -1, -1, -1, -1, -1, -1, -1, -1, -1, -1, -1, -1, -1, -1, -1, -1, -1, -1, 1, 1, -1, -1, -1, -1, -1, -1, -1, -1, -1, -1, -1, -1, -1, -1, -1, -1, -1, -1, -1, -1, -1, -1, -1, -1, -1, -1, -1, -1, -1, -1, -1, -1, -1, -1, -1, -1, -1, -1, -1, -1, -1, -1, -1, -1, -1, -1, -1, -1, -1, -1, -1, -1, -1, -1, -1, -1, -1, -1, -1, -1, -1
       | -1, -1, 1, -1, -1, -1, -1, -1, -1, -1, -1, -1, -1, -1, -1, -1, -1, -1, -1, -1, -1, -1, -1, -1, -1, -1, -1, -1, -1, -1, -1, -1, -1, -1, -1, -1, -1, -1, -1, -1, -1, 1, -1, -1, -1, -1, -1, -1, -1, -1, -1, -1, -1, -1, -1, -1, -1, -1, -1, -1, -1, -1, -1, -1, -1, -1, -1, -1, -1, -1, -1, -1, -1, -1, -1, -1, -1, -1, -1, -1, -1, -1, -1, -1, -1, -1, -1, -1, -1, -1, -1, -1, -1, -1, -1, -1, -1, -1, -1, -1, -1, -1
       | -1, -1, 1, -1, -1, -1, -1, -1, -1, -1, -1, -1, -1, -1, -1, -1, -1, -1, -1, -1, -1, -1, -1, -1, -1, -1, -1, -1, -1, -1, -1, -1, -1, -1, -1, -1, -1, -1, -1, -1, -1, -1, 1, 1, -1, -1, -1, -1, -1, -1, -1, -1, -1, -1, -1, -1, -1, -1, -1, -1, -1, -1, -1, -1, -1, -1, -1, -1, -1, -1, -1, -1, -1, -1, -1, -1, -1, -1, -1, -1, -1, -1, -1, -1, -1, -1, -1, -1, -1, -1, -1, -1, -1, -1, -1, -1, -1, -1, -1, -1, -1, -1
       | -1, -1, -1, -1, -1, -1, -1, -1, -1, -1, -1, -1, -1, -1, -1, -1, -1, -1, -1, -1, -1, -1, -1, -1, -1, -1, -1, -1, -1, -1, -1, -1, -1, -1, -1, -1, -1, -1, -1, -1, -1, -1, 1, 1, -1, -1, -1, -1, -1, -1, -1, -1, -1, -1, -1, -1, -1, -1, -1, -1, -1, -1, -1, -1, -1, -1, -1, -1, -1, -1, -1, -1, -1, -1, -1, -1, -1, -1, -1, -1, -1, -1, -1, -1, -1, -1, -1, -1, -1, -1, -1, -1, -1, -1, -1, -1, -1, -1, -1, -1, -1, -1
       | -1, -1, 1, -1, -1, -1, -1, -1, -1, -1, -1, -1, -1, -1, -1, -1, -1, -1, -1, -1, -1, -1, -1, -1, -1, -1, -1, -1, -1, -1, -1, -1, -1, -1, -1, -1, -1, -1, -1, -1, -1, -1, -1, -1, 1, 0, -1, -1, -1, -1, -1, -1, -1, -1, -1, -1, -1, -1, -1, -1, -1, -1, -1, -1, -1, -1, -1, -1, -1, -1, -1, -1, -1, -1, -1, -1, -1, -1, -1, -1, -1, -1, -1, -1, -1, -1, -1, -1, -1, -1, -1, -1, -1, -1, -1, -1, -1, -1, -1, -1, -1, -1
       | -1, -1, -1, -1, -1, -1, -1, -1, -1, -1, -1, -1, -1, -1, -1, -1, -1, -1, -1, -1, -1, -1, -1, -1, -1, -1, -1, -1, -1, -1, -1, -1, -1, -1, -1, -1, -1, -1, -1, -1, -1, -1, -1, -1, 1, 1, -1, -1, -1, -1, -1, -1, -1, -1, -1, -1, -1, -1, -1, -1, -1, -1, -1, -1, -1, -1, -1, -1, -1, -1, -1, -1, -1, -1, -1, -1, -1, -1, -1, -1, -1, -1, -1, -1, -1, -1, -1, -1, -1, -1, -1, -1, -1, -1, -1, -1, -1, -1, -1, -1, -1, -1
       | -1, -1, -1, 1, -1, -1, -1, -1, -1, -1, -1, -1, -1, -1, -1, -1, -1, -1, -1, -1, -1, -1, -1, -1, -1, -1, -1, -1, -1, -1, -1, -1, -1, -1, -1, -1, -1, -1, -1, -1, -1, -1, -1, -1, -1, -1, 1, -1, -1, -1, -1, -1, -1, -1, -1, -1, -1, -1, -1, -1, -1, -1, -1, -1, -1, -1, -1, -1, -1, -1, -1, -1, -1, -1, -1, -1, -1, -1, -1, -1, -1, -1, -1, -1, -1, -1, -1, -1, -1, -1, -1, -1, -1, -1, -1, -1, -1, -1, -1, -1, -1, -1
       | -1, -1, -1, 1, -1, -1, -1, -1, -1, -1, -1, -1, -1, -1, -1, -1, -1, -1, -1, -1, -1, -1, -1, -1, -1, -1, -1, -1, -1, -1, -1, -1, -1, -1, -1, -1, -1, -1, -1, -1, -1, -1, -1, -1, -1, -1, -1, 1, 1, -1, -1, -1, -1, -1, -1, -1, -1, -1, -1, -1, -1, -1, -1, -1, -1, -1, -1, -1, -1, -1, -1, -1, -1, -1, -1, -1, -1, -1, -1, -1, -1, -1, -1, -1, -1, -1, -1, -1, -1, -1, -1, -1, -1, -1, -1, -1, -1, -1, -1, -1, -1, -1
       | -1, -1, -1, -1, -1, -1, -1, -1, -1, -1, -1, -1, -1, -1, -1, -1, -1, -1, -1, -1, -1, -1, -1, -1, -1, -1, -1, -1, -1, -1, -1, -1, -1, -1, -1, -1, -1, -1, -1, -1, -1, -1, -1, -1, -1, -1, -1, 1, 1, -1, -1, -1, -1, -1, -1, -1, -1, -1, -1, -1, -1, -1, -1, -1, -1, -1, -1, -1, -1, -1, -1, -1, -1, -1, -1, -1, -1, -1, -1, -1, -1, -1, -1, -1, -1, -1, -1, -1, -1, -1, -1, -1, -1, -1, -1, -1, -1, -1, -1, -1, -1, -1
       | -1, -1, -1, 1, -1, -1, -1, -1, -1, -1, -1, -1, -1, -1, -1, -1, -1, -1, -1, -1, -1, -1, -1, -1, -1, -1, -1, -1, -1, -1, -1, -1, -1, -1, -1, -1, -1, -1, -1, -1, -1, -1, -1, -1, -1, -1, -1, -1, -1, 1, 0, -1, -1, -1, -1, -1, -1, -1, -1, -1, -1, -1, -1, -1, -1, -1, -1, -1, -1, -1, -1, -1, -1, -1, -1, -1, -1, -1, -1, -1, -1, -1, -1, -1, -1, -1, -1, -1, -1, -1, -1, -1, -1, -1, -1, -1, -1, -1, -1, -1, -1, -1
       | -1, -1, -1, -1, -1, -1, -1, -1, -1, -1, -1, -1, -1, -1, -1, -1, -1, -1, -1, -1, -1, -1, -1, -1, -1, -1, -1, -1, -1, -1, -1, -1, -1, -1, -1, -1, -1, -1, -1, -1, -1, -1, -1, -1, -1, -1, -1, -1, -1, 1, 1, -1, -1, -1, -1, -1, -1, -1, -1, -1, -1, -1, -1, -1, -1, -1, -1, -1, -1, -1, -1, -1, -1, -1, -1, -1, -1, -1, -1, -1, -1, -1, -1, -1, -1, -1, -1, -1, -1, -1, -1, -1, -1, -1, -1, -1, -1, -1, -1, -1, -1, -1
       | -1, -1, -1, -1, 1, -1, -1, -1, -1, -1, -1, -1, -1, -1, -1, -1, -1, -1, -1, -1, -1, -1, -1, -1, -1, -1, -1, -1, -1, -1, -1, -1, -1, -1, -1, -1, -1, -1, -1, -1, -1, -1, -1, -1, -1, -1, -1, -1, -1, -1, -1, 1, -1, -1, -1, -1, -1, -1, -1, -1, -1, -1, -1, -1, -1, -1, -1, -1, -1, -1, -1, -1, -1, -1, -1, -1, -1, -1, -1, -1, -1, -1, -1, -1, -1, -1, -1, -1, -1, -1, -1, -1, -1, -1, -1, -1, -1, -1, -1, -1, -1, -1
       | -1, -1, -1, -1, 1, -1, -1, -1, -1, -1, -1, -1, -1, -1, -1, -1, -1, -1, -1, -1, -1, -1, -1, -1, -1, -1, -1, -1, -1, -1, -1, -1, -1, -1, -1, -1, -1, -1, -1, -1, -1, -1, -1, -1, -1, -1, -1, -1, -1, -1, -1, -1, 1, 1, -1, -1, -1, -1, -1, -1, -1, -1, -1, -1, -1, -1, -1, -1, -1, -1, -1, -1, -1, -1, -1, -1, -1, -1, -1, -1, -1, -1, -1, -1, -1, -1, -1, -1, -1, -1, -1, -1, -1, -1, -1, -1, -1, -1, -1, -1, -1, -1
       | -1, -1, -1, -1, -1, -1, -1, -1, -1, -1, -1, -1, -1, -1, -1, -1, -1, -1, -1, -1, -1, -1, -1, -1, -1, -1, -1, -1, -1, -1, -1, -1, -1, -1, -1, -1, -1, -1, -1, -1, -1, -1, -1, -1, -1, -1, -1, -1, -1, -1, -1, -1, 1, 1, -1, -1, -1, -1, -1, -1, -1, -1, -1, -1, -1, -1, -1, -1, -1, -1, -1, -1, -1, -1, -1, -1, -1, -1, -1, -1, -1, -1, -1, -1, -1, -1, -1, -1, -1, -1, -1, -1, -1, -1, -1, -1, -1, -1, -1, -1, -1, -1
       | -1, -1, -1, -1, 1, -1, -1, -1, -1, -1, -1, -1, -1, -1, -1, -1, -1, -1, -1, -1, -1, -1, -1, -1, -1, -1, -1, -1, -1, -1, -1, -1, -1, -1, -1, -1, -1, -1, -1, -1, -1, -1, -1, -1, -1, -1, -1, -1, -1, -1, -1, -1, -1, -1, 1, 0, -1, -1, -1, -1, -1, -1, -1, -1, -1, -1, -1, -1, -1, -1, -1, -1, -1, -1, -1, -1, -1, -1, -1, -1, -1, -1, -1, -1, -1, -1, -1, -1, -1, -1, -1, -1, -1, -1, -1, -1, -1, -1, -1, -1, -1, -1
       | -1, -1, -1, -1, -1, -1, -1, -1, -1, -1, -1, -1, -1, -1, -1, -1, -1, -1, -1, -1, -1, -1, -1, -1, -1, -1, -1, -1, -1, -1, -1, -1, -1, -1, -1, -1, -1, -1, -1, -1, -1, -1, -1, -1, -1, -1, -1, -1, -1, -1, -1, -1, -1, -1, 1, 1, -1, -1, -1, -1, -1, -1, -1, -1, -1, -1, -1, -1, -1, -1, -1, -1, -1, -1, -1, -1, -1, -1, -1, -1, -1, -1, -1, -1, -1, -1, -1, -1, -1, -1, -1, -1, -1, -1, -1, -1, -1, -1, -1, -1, -1, -1
       | -1, -1, -1, -1, -1, 1, -1, -1, -1, -1, -1, -1, -1, -1, -1, -1, -1, -1, -1, -1, -1, -1, -1, -1, -1, -1, -1, -1, -1, -1, -1, -1, -1, -1, -1, -1, -1, -1, -1, -1, -1, -1, -1, -1, -1, -1, -1, -1, -1, -1, -1, -1, -1, -1, -1, -1, 1, -1, -1, -1, -1, -1, -1, -1, -1, -1, -1, -1, -1, -1, -1, -1, -1, -1, -1, -1, -1, -1, -1, -1, -1, -1, -1, -1, -1, -1, -1, -1, -1, -1, -1, -1, -1, -1, -1, -1, -1, -1, -1, -1, -1, -1
       | -1, -1, -1, -1, -1, 1, -1, -1, -1, -1, -1, -1, -1, -1, -1, -1, -1, -1, -1, -1, -1, -1, -1, -1, -1, -1, -1, -1, -1, -1, -1, -1, -1, -1, -1, -1, -1, -1, -1, -1, -1, -1, -1, -1, -1, -1, -1, -1, -1, -1, -1, -1, -1, -1, -1, -1, -1, 1, 1, -1, -1, -1, -1, -1, -1, -1, -1, -1, -1, -1, -1, -1, -1, -1, -1, -1, -1, -1, -1, -1, -1, -1, -1, -1, -1, -1, -1, -1, -1, -1, -1, -1, -1, -1, -1, -1, -1, -1, -1, -1, -1, -1
       | -1, -1, -1, -1, -1, -1, -1, -1, -1, -1, -1, -1, -1, -1, -1, -1, -1, -1, -1, -1, -1, -1, -1, -1, -1, -1, -1, -1, -1, -1, -1, -1, -1, -1, -1, -1, -1, -1, -1, -1, -1, -1, -1, -1, -1, -1, -1, -1, -1, -1, -1, -1, -1, -1, -1, -1, -1, 1, 1, -1, -1, -1, -1, -1, -1, -1, -1, -1, -1, -1, -1, -1, -1, -1, -1, -1, -1, -1, -1, -1, -1, -1, -1, -1, -1, -1, -1, -1, -1, -1, -1, -1, -1, -1, -1, -1, -1, -1, -1, -1, -1, -1
       | -1, -1, -1, -1, -1, 1, -1, -1, -1, -1, -1, -1, -1, -1, -1, -1, -1, -1, -1, -1, -1, -1, -1, -1, -1, -1, -1, -1, -1, -1, -1, -1, -1, -1, -1, -1, -1, -1, -1, -1, -1, -1, -1, -1, -1, -1, -1, -1, -1, -1, -1, -1, -1, -1, -1, -1, -1, -1, -1, 1, 0, -1, -1, -1, -1, -1, -1, -1, -1, -1, -1, -1, -1, -1, -1, -1, -1, -1, -1, -1, -1, -1, -1, -1, -1, -1, -1, -1, -1, -1, -1, -1, -1, -1, -1, -1, -1, -1, -1, -1, -1, -1
       | -1, -1, -1, -1, -1, -1, -1, -1, -1, -1, -1, -1, -1, -1, -1, -1, -1, -1, -1, -1, -1, -1, -1, -1, -1, -1, -1, -1, -1, -1, -1, -1, -1, -1, -1, -1, -1, -1, -1, -1, -1, -1, -1, -1, -1, -1, -1, -1, -1, -1, -1, -1, -1, -1, -1, -1, -1, -1, -1, 1, 1, -1, -1, -1, -1, -1, -1, -1, -1, -1, -1, -1, -1, -1, -1, -1, -1, -1, -1, -1, -1, -1, -1, -1, -1, -1, -1, -1, -1, -1, -1, -1, -1, -1, -1, -1, -1, -1, -1, -1, -1, -1
       | -1, -1, -1, -1, -1, -1, 1, -1, -1, -1, -1, -1, -1, -1, -1, -1, -1, -1, -1, -1, -1, -1, -1, -1, -1, -1, -1, -1, -1, -1, -1, -1, -1, -1, -1, -1, -1, -1, -1, -1, -1, -1, -1, -1, -1, -1, -1, -1, -1, -1, -1, -1, -1, -1, -1, -1, -1, -1, -1, -1, -1, 1, -1, -1, -1, -1, -1, -1, -1, -1, -1, -1, -1, -1, -1, -1, -1, -1, -1, -1, -1, -1, -1, -1, -1, -1, -1, -1, -1, -1, -1, -1, -1, -1, -1, -1, -1, -1, -1, -1, -1, -1
       | -1, -1, -1, -1, -1, -1, 1, -1, -1, -1, -1, -1, -1, -1, -1, -1, -1, -1, -1, -1, -1, -1, -1, -1, -1, -1, -1, -1, -1, -1, -1, -1, -1, -1, -1, -1, -1, -1, -1, -1, -1, -1, -1, -1, -1, -1, -1, -1, -1, -1, -1, -1, -1, -1, -1, -1, -1, -1, -1, -1, -1, -1, 1, 1, -1, -1, -1, -1, -1, -1, -1, -1, -1, -1, -1, -1, -1, -1, -1, -1, -1, -1, -1, -1, -1, -1, -1, -1, -1, -1, -1, -1, -1, -1, -1, -1, -1, -1, -1, -1, -1, -1
       | -1, -1, -1, -1, -1, -1, -1, -1, -1, -1, -1, -1, -1, -1, -1, -1, -1, -1, -1, -1, -1, -1, -1, -1, -1, -1, -1, -1, -1, -1, -1, -1, -1, -1, -1, -1, -1, -1, -1, -1, -1, -1, -1, -1, -1, -1, -1, -1, -1, -1, -1, -1, -1, -1, -1, -1, -1, -1, -1, -1, -1, -1, 1, 1, -1, -1, -1, -1, -1, -1, -1, -1, -1, -1, -1, -1, -1, -1, -1, -1, -1, -1, -1, -1, -1, -1, -1, -1, -1, -1, -1, -1, -1, -1, -1, -1, -1, -1, -1, -1, -1, -1
       | -1, -1, -1, -1, -1, -1, 1, -1, -1, -1, -1, -1, -1, -1, -1, -1, -1, -1, -1, -1, -1, -1, -1, -1, -1, -1, -1, -1, -1, -1, -1, -1, -1, -1, -1, -1, -1, -1, -1, -1, -1, -1, -1, -1, -1, -1, -1, -1, -1, -1, -1, -1, -1, -1, -1, -1, -1, -1, -1, -1, -1, -1, -1, -1, 1, 0, -1, -1, -1, -1, -1, -1, -1, -1, -1, -1, -1, -1, -1, -1, -1, -1, -1, -1, -1, -1, -1, -1, -1, -1, -1, -1, -1, -1, -1, -1, -1, -1, -1, -1, -1, -1
       | -1, -1, -1, -1, -1, -1, -1, -1, -1, -1, -1, -1, -1, -1, -1, -1, -1, -1, -1, -1, -1, -1, -1, -1, -1, -1, -1, -1, -1, -1, -1, -1, -1, -1, -1, -1, -1, -1, -1, -1, -1, -1, -1, -1, -1, -1, -1, -1, -1, -1, -1, -1, -1, -1, -1, -1, -1, -1, -1, -1, -1, -1, -1, -1, 1, 1, -1, -1, -1, -1, -1, -1, -1, -1, -1, -1, -1, -1, -1, -1, -1, -1, -1, -1, -1, -1, -1, -1, -1, -1, -1, -1, -1, -1, -1, -1, -1, -1, -1, -1, -1, -1
       | -1, -1, -1, -1, -1, -1, -1, 1, -1, -1, -1, -1, -1, -1, -1, -1, -1, -1, -1, -1, -1, -1, -1, -1, -1, -1, -1, -1, -1, -1, -1, -1, -1, -1, -1, -1, -1, -1, -1, -1, -1, -1, -1, -1, -1, -1, -1, -1, -1, -1, -1, -1, -1, -1, -1, -1, -1, -1, -1, -1, -1, -1, -1, -1, -1, -1, 1, -1, -1, -1, -1, -1, -1, -1, -1, -1, -1, -1, -1, -1, -1, -1, -1, -1, -1, -1, -1, -1, -1, -1, -1, -1, -1, -1, -1, -1, -1, -1, -1, -1, -1, -1
       | -1, -1, -1, -1, -1, -1, -1, 1, -1, -1, -1, -1, -1, -1, -1, -1, -1, -1, -1, -1, -1, -1, -1, -1, -1, -1, -1, -1, -1, -1, -1, -1, -1, -1, -1, -1, -1, -1, -1, -1, -1, -1, -1, -1, -1, -1, -1, -1, -1, -1, -1, -1, -1, -1, -1, -1, -1, -1, -1, -1, -1, -1, -1, -1, -1, -1, -1, 1, 1, -1, -1, -1, -1, -1, -1, -1, -1, -1, -1, -1, -1, -1, -1, -1, -1, -1, -1, -1, -1, -1, -1, -1, -1, -1, -1, -1, -1, -1, -1, -1, -1, -1
       | -1, -1, -1, -1, -1, -1, -1, -1, -1, -1, -1, -1, -1, -1, -1, -1, -1, -1, -1, -1, -1, -1, -1, -1, -1, -1, -1, -1, -1, -1, -1, -1, -1, -1, -1, -1, -1, -1, -1, -1, -1, -1, -1, -1, -1, -1, -1, -1, -1, -1, -1, -1, -1, -1, -1, -1, -1, -1, -1, -1, -1, -1, -1, -1, -1, -1, -1, 1, 1, -1, -1, -1, -1, -1, -1, -1, -1, -1, -1, -1, -1, -1, -1, -1, -1, -1, -1, -1, -1, -1, -1, -1, -1, -1, -1, -1, -1, -1, -1, -1, -1, -1
       | -1, -1, -1, -1, -1, -1, -1, 1, -1, -1, -1, -1, -1, -1, -1, -1, -1, -1, -1, -1, -1, -1, -1, -1, -1, -1, -1, -1, -1, -1, -1, -1, -1, -1, -1, -1, -1, -1, -1, -1, -1, -1, -1, -1, -1, -1, -1, -1, -1, -1, -1, -1, -1, -1, -1, -1, -1, -1, -1, -1, -1, -1, -1, -1, -1, -1, -1, -1, -1, 1, 0, -1, -1, -1, -1, -1, -1, -1, -1, -1, -1, -1, -1, -1, -1, -1, -1, -1, -1, -1, -1, -1, -1, -1, -1, -1, -1, -1, -1, -1, -1, -1
       | -1, -1, -1, -1, -1, -1, -1, -1, -1, -1, -1, -1, -1, -1, -1, -1, -1, -1, -1, -1, -1, -1, -1, -1, -1, -1, -1, -1, -1, -1, -1, -1, -1, -1, -1, -1, -1, -1, -1, -1, -1, -1, -1, -1, -1, -1, -1, -1, -1, -1, -1, -1, -1, -1, -1, -1, -1, -1, -1, -1, -1, -1, -1, -1, -1, -1, -1, -1, -1, 1, 1, -1, -1, -1, -1, -1, -1, -1, -1, -1, -1, -1, -1, -1, -1, -1, -1, -1, -1, -1, -1, -1, -1, -1, -1, -1, -1, -1, -1, -1, -1, -1
       | -1, -1, -1, -1, -1, -1, -1, -1, 1, -1, -1, -1, -1, -1, -1, -1, -1, -1, -1, -1, -1, -1, -1, -1, -1, -1, -1, -1, -1, -1, -1, -1, -1, -1, -1, -1, -1, -1, -1, -1, -1, -1, -1, -1, -1, -1, -1, -1, -1, -1, -1, -1, -1, -1, -1, -1, -1, -1, -1, -1, -1, -1, -1, -1, -1, -1, -1, -1, -1, -1, -1, 1, -1, -1, -1, -1, -1, -1, -1, -1, -1, -1, -1, -1, -1, -1, -1, -1, -1, -1, -1, -1, -1, -1, -1, -1, -1, -1, -1, -1, -1, -1
       | -1, -1, -1, -1, -1, -1, -1, -1, -1, 1, -1, -1, -1, -1, -1, -1, -1, -1, -1, -1, -1, -1, -1, -1, -1, -1, -1, -1, -1, -1, -1, -1, -1, -1, -1, -1, -1, -1, -1, -1, -1, -1, -1, -1, -1, -1, -1, -1, -1, -1, -1, -1, -1, -1, -1, -1, -1, -1, -1, -1, -1, -1, -1, -1, -1, -1, -1, -1, -1, -1, -1, -1, 1, -1, -1, -1, -1, -1, -1, -1, -1, -1, -1, -1, -1, -1, -1, -1, -1, -1, -1, -1, -1, -1, -1, -1, -1, -1, -1, -1, -1, -1
       | -1, -1, -1, -1, -1, -1, -1, -1, -1, -1, 1, -1, -1, -1, -1, -1, -1, -1, -1, -1, -1, -1, -1, -1, -1, -1, -1, -1, -1, -1, -1, -1, -1, -1, -1, -1, -1, -1, -1, -1, -1, -1, -1, -1, -1, -1, -1, -1, -1, -1, -1, -1, -1, -1, -1, -1, -1, -1, -1, -1, -1, -1, -1, -1, -1, -1, -1, -1, -1, -1, -1, -1, -1, 1, -1, -1, -1, -1, -1, -1, -1, -1, -1, -1, -1, -1, -1, -1, -1, -1, -1, -1, -1, -1, -1, -1, -1, -1, -1, -1, -1, -1
       | -1, -1, -1, -1, -1, -1, -1, -1, -1, -1, -1, 1, -1, -1, -1, -1, -1, -1, -1, -1, -1, -1, -1, -1, -1, -1, -1, -1, -1, -1, -1, -1, -1, -1, -1, -1, -1, -1, -1, -1, -1, -1, -1, -1, -1, -1, -1, -1, -1, -1, -1, -1, -1, -1, -1, -1, -1, -1, -1, -1, -1, -1, -1, -1, -1, -1, -1, -1, -1, -1, -1, -1, -1, -1, 1, -1, -1, -1, -1, -1, -1, -1, -1, -1, -1, -1, -1, -1, -1, -1, -1, -1, -1, -1, -1, -1, -1, -1, -1, -1, -1, -1
       | -1, -1, -1, -1, -1, -1, -1, -1, -1, -1, -1, -1, 1, -1, -1, -1, -1, -1, -1, -1, -1, -1, -1, -1, -1, -1, -1, -1, -1, -1, -1, -1, -1, -1, -1, -1, -1, -1, -1, -1, -1, -1, -1, -1, -1, -1, -1, -1, -1, -1, -1, -1, -1, -1, -1, -1, -1, -1, -1, -1, -1, -1, -1, -1, -1, -1, -1, -1, -1, -1, -1, -1, -1, -1, -1, 1, -1, -1, -1, -1, -1, -1, -1, -1, -1, -1, -1, -1, -1, -1, -1, -1, -1, -1, -1, -1, -1, -1, -1, -1, -1, -1
       | -1, -1, -1, -1, -1, -1, -1, -1, -1, -1, -1, -1, -1, 1, -1, -1, -1, -1, -1, -1, -1, -1, -1, -1, -1, -1, -1, -1, -1, -1, -1, -1, -1, -1, -1, -1, -1, -1, -1, -1, -1, -1, -1, -1, -1, -1, -1, -1, -1, -1, -1, -1, -1, -1, -1, -1, -1, -1, -1, -1, -1, -1, -1, -1, -1, -1, -1, -1, -1, -1, -1, -1, -1, -1, -1, -1, 1, -1, -1, -1, -1, -1, -1, -1, -1, -1, -1, -1, -1, -1, -1, -1, -1, -1, -1, -1, -1, -1, -1, -1, -1, -1
       | -1, -1, -1, -1, -1, -1, -1, -1, -1, -1, -1, -1, -1, -1, 1, -1, -1, -1, -1, -1, -1, -1, -1, -1, -1, -1, -1, -1, -1, -1, -1, -1, -1, -1, -1, -1, -1, -1, -1, -1, -1, -1, -1, -1, -1, -1, -1, -1, -1, -1, -1, -1, -1, -1, -1, -1, -1, -1, -1, -1, -1, -1, -1, -1, -1, -1, -1, -1, -1, -1, -1, -1, -1, -1, -1, -1, -1, 1, -1, -1, -1, -1, -1, -1, -1, -1, -1, -1, -1, -1, -1, -1, -1, -1, -1, -1, -1, -1, -1, -1, -1, -1
       | -1, -1, -1, -1, -1, -1, -1, -1, -1, -1, -1, -1, -1, -1, -1, 1, -1, -1, -1, -1, -1, -1, -1, -1, -1, -1, -1, -1, -1, -1, -1, -1, -1, -1, -1, -1, -1, -1, -1, -1, -1, -1, -1, -1, -1, -1, -1, -1, -1, -1, -1, -1, -1, -1, -1, -1, -1, -1, -1, -1, -1, -1, -1, -1, -1, -1, -1, -1, -1, -1, -1, -1, -1, -1, -1, -1, -1, -1, 1, -1, -1, -1, -1, -1, -1, -1, -1, -1, -1, -1, -1, -1, -1, -1, -1, -1, -1, -1, -1, -1, -1, -1
       | -1, -1, -1, -1, -1, -1, -1, -1, -1, -1, -1, -1, -1, -1, -1, -1, 1, -1, -1, -1, -1, -1, -1, -1, -1, -1, -1, -1, -1, -1, -1, -1, -1, -1, -1, -1, -1, -1, -1, -1, -1, -1, -1, -1, -1, -1, -1, -1, -1, -1, -1, -1, -1, -1, -1, -1, -1, -1, -1, -1, -1, -1, -1, -1, -1, -1, -1, -1, -1, -1, -1, -1, -1, -1, -1, -1, -1, -1, -1, 1, -1, -1, -1, -1, -1, -1, -1, -1, -1, -1, -1, -1, -1, -1, -1, -1, -1, -1, -1, -1, -1, -1
       | -1, -1, -1, -1, -1, -1, -1, -1, -1, -1, -1, -1, -1, -1, -1, -1, 1, -1, -1, -1, -1, -1, -1, -1, -1, -1, -1, -1, -1, -1, -1, -1, -1, -1, -1, -1, -1, -1, -1, -1, -1, -1, -1, -1, -1, -1, -1, -1, -1, -1, -1, -1, -1, -1, -1, -1, -1, -1, -1, -1, -1, -1, -1, -1, -1, -1, -1, -1, -1, -1, -1, -1, -1, -1, -1, -1, -1, -1, -1, -1, 1, -1, -1, -1, -1, -1, -1, -1, -1, -1, -1, -1, -1, -1, -1, -1, -1, -1, -1, -1, -1, -1
       | -1, -1, -1, -1, -1, -1, -1, -1, -1, -1, -1, -1, -1, -1, -1, -1, -1, 1, -1, -1, -1, -1, -1, -1, -1, -1, -1, -1, -1, -1, -1, -1, -1, -1, -1, -1, -1, -1, -1, -1, -1, -1, -1, -1, -1, -1, -1, -1, -1, -1, -1, -1, -1, -1, -1, -1, -1, -1, -1, -1, -1, -1, -1, -1, -1, -1, -1, -1, -1, -1, -1, -1, -1, -1, -1, -1, -1, -1, -1, -1, -1, 1, -1, -1, -1, -1, -1, -1, -1, -1, -1, -1, -1, -1, -1, -1, -1, -1, -1, -1, -1, -1
       | -1, -1, -1, -1, -1, -1, -1, -1, -1, -1, -1, -1, -1, -1, -1, -1, -1, -1, 1, -1, -1, -1, -1, -1, -1, -1, -1, -1, -1, -1, -1, -1, -1, -1, -1, -1, -1, -1, -1, -1, -1, -1, -1, -1, -1, -1, -1, -1, -1, -1, -1, -1, -1, -1, -1, -1, -1, -1, -1, -1, -1, -1, -1, -1, -1, -1, -1, -1, -1, -1, -1, -1, -1, -1, -1, -1, -1, -1, -1, -1, -1, -1, 1, -1, -1, -1, -1, -1, -1, -1, -1, -1, -1, -1, -1, -1, -1, -1, -1, -1, -1, -1
       | -1, -1, -1, -1, -1, -1, -1, -1, -1, -1, -1, -1, -1, -1, -1, -1, -1, -1, 1, -1, -1, -1, -1, -1, -1, -1, -1, -1, -1, -1, -1, -1, -1, -1, -1, -1, -1, -1, -1, -1, -1, -1, -1, -1, -1, -1, -1, -1, -1, -1, -1, -1, -1, -1, -1, -1, -1, -1, -1, -1, -1, -1, -1, -1, -1, -1, -1, -1, -1, -1, -1, -1, -1, -1, -1, -1, -1, -1, -1, -1, -1, -1, -1, 1, -1, -1, -1, -1, -1, -1, -1, -1, -1, -1, -1, -1, -1, -1, -1, -1, -1, -1
       | -1, -1, -1, -1, -1, -1, -1, -1, -1, -1, -1, -1, -1, -1, -1, -1, -1, -1, -1, 1, -1, -1, -1, -1, -1, -1, -1, -1, -1, -1, -1, -1, -1, -1, -1, -1, -1, -1, -1, -1, -1, -1, -1, -1, -1, -1, -1, -1, -1, -1, -1, -1, -1, -1, -1, -1, -1, -1, -1, -1, -1, -1, -1, -1, -1, -1, -1, -1, -1, -1, -1, -1, -1, -1, -1, -1, -1, -1, -1, -1, -1, -1, -1, -1, 1, -1, -1, -1, -1, -1, -1, -1, -1, -1, -1, -1, -1, -1, -1, -1, -1, -1
       | -1, -1, -1, -1, -1, -1, -1, -1, -1, -1, -1, -1, -1, -1, -1, -1, -1, -1, -1, -1, 1, -1, -1, -1, -1, -1, -1, -1, -1, -1, -1, -1, -1, -1, -1, -1, -1, -1, -1, -1, -1, -1, -1, -1, -1, -1, -1, -1, -1, -1, -1, -1, -1, -1, -1, -1, -1, -1, -1, -1, -1, -1, -1, -1, -1, -1, -1, -1, -1, -1, -1, -1, -1, -1, -1, -1, -1, -1, -1, -1, -1, -1, -1, -1, -1, 1, -1, -1, -1, -1, -1, -1, -1, -1, -1, -1, -1, -1, -1, -1, -1, -1
       | -1, -1, -1, -1, -1, -1, -1, -1, -1, -1, -1, -1, -1, -1, -1, -1, -1, -1, -1, -1, 1, -1, -1, -1, -1, -1, -1, -1, -1, -1, -1, -1, -1, -1, -1, -1, -1, -1, -1, -1, -1, -1, -1, -1, -1, -1, -1, -1, -1, -1, -1, -1, -1, -1, -1, -1, -1, -1, -1, -1, -1, -1, -1, -1, -1, -1, -1, -1, -1, -1, -1, -1, -1, -1, -1, -1, -1, -1, -1, -1, -1, -1, -1, -1, -1, -1, 1, -1, -1, -1, -1, -1, -1, -1, -1, -1, -1, -1, -1, -1, -1, -1
       | -1, -1, -1, -1, -1, -1, -1, -1, -1, -1, -1, -1, -1, -1, -1, -1, -1, -1, -1, -1, -1, 1, -1, -1, -1, -1, -1, -1, -1, -1, -1, -1, -1, -1, -1, -1, -1, -1, -1, -1, -1, -1, -1, -1, -1, -1, -1, -1, -1, -1, -1, -1, -1, -1, -1, -1, -1, -1, -1, -1, -1, -1, -1, -1, -1, -1, -1, -1, -1, -1, -1, -1, -1, -1, -1, -1, -1, -1, -1, -1, -1, -1, -1, -1, -1, -1, -1, 1, -1, -1, -1, -1, -1, -1, -1, -1, -1, -1, -1, -1, -1, -1
       | -1, -1, -1, -1, -1, -1, -1, -1, -1, -1, -1, -1, -1, -1, -1, -1, -1, -1, -1, -1, -1, -1, 1, -1, -1, -1, -1, -1, -1, -1, -1, -1, -1, -1, -1, -1, -1, -1, -1, -1, -1, -1, -1, -1, -1, -1, -1, -1, -1, -1, -1, -1, -1, -1, -1, -1, -1, -1, -1, -1, -1, -1, -1, -1, -1, -1, -1, -1, -1, -1, -1, -1, -1, -1, -1, -1, -1, -1, -1, -1, -1, -1, -1, -1, -1, -1, -1, -1, 1, -1, -1, -1, -1, -1, -1, -1, -1, -1, -1, -1, -1, -1
       | -1, -1, -1, -1, -1, -1, -1, -1, -1, -1, -1, -1, -1, -1, -1, -1, -1, -1, -1, -1, -1, -1, 1, -1, -1, -1, -1, -1, -1, -1, -1, -1, -1, -1, -1, -1, -1, -1, -1, -1, -1, -1, -1, -1, -1, -1, -1, -1, -1, -1, -1, -1, -1, -1, -1, -1, -1, -1, -1, -1, -1, -1, -1, -1, -1, -1, -1, -1, -1, -1, -1, -1, -1, -1, -1, -1, -1, -1, -1, -1, -1, -1, -1, -1, -1, -1, -1, -1, -1, 1, -1, -1, -1, -1, -1, -1, -1, -1, -1, -1, -1, -1
       | -1, -1, -1, -1, -1, -1, -1, -1, -1, -1, -1, -1, -1, -1, -1, -1, -1, -1, -1, -1, -1, -1, -1, 1, -1, -1, -1, -1, -1, -1, -1, -1, -1, -1, -1, -1, -1, -1, -1, -1, -1, -1, -1, -1, -1, -1, -1, -1, -1, -1, -1, -1, -1, -1, -1, -1, -1, -1, -1, -1, -1, -1, -1, -1, -1, -1, -1, -1, -1, -1, -1, -1, -1, -1, -1, -1, -1, -1, -1, -1, -1, -1, -1, -1, -1, -1, -1, -1, -1, -1, 1, -1, -1, -1, -1, -1, -1, -1, -1, -1, -1, -1
       | -1, -1, -1, -1, -1, -1, -1, -1, -1, -1, -1, -1, -1, -1, -1, -1, -1, -1, -1, -1, -1, -1, -1, -1, 1, -1, -1, -1, -1, -1, -1, -1, -1, -1, -1, -1, -1, -1, -1, -1, -1, -1, -1, -1, -1, -1, -1, -1, -1, -1, -1, -1, -1, -1, -1, -1, -1, -1, -1, -1, -1, -1, -1, -1, -1, -1, -1, -1, -1, -1, -1, -1, -1, -1, -1, -1, -1, -1, -1, -1, -1, -1, -1, -1, -1, -1, -1, -1, -1, -1, -1, 1, -1, -1, -1, -1, -1, -1, -1, -1, -1, -1
       | -1, -1, -1, -1, -1, -1, -1, -1, -1, -1, -1, -1, -1, -1, -1, -1, -1, -1, -1, -1, -1, -1, -1, -1, 1, -1, -1, -1, -1, -1, -1, -1, -1, -1, -1, -1, -1, -1, -1, -1, -1, -1, -1, -1, -1, -1, -1, -1, -1, -1, -1, -1, -1, -1, -1, -1, -1, -1, -1, -1, -1, -1, -1, -1, -1, -1, -1, -1, -1, -1, -1, -1, -1, -1, -1, -1, -1, -1, -1, -1, -1, -1, -1, -1, -1, -1, -1, -1, -1, -1, -1, -1, 1, -1, -1, -1, -1, -1, -1, -1, -1, -1
       | -1, -1, -1, -1, -1, -1, -1, -1, -1, -1, -1, -1, -1, -1, -1, -1, -1, -1, -1, -1, -1, -1, -1, -1, -1, 1, -1, -1, -1, -1, -1, -1, -1, -1, -1, -1, -1, -1, -1, -1, -1, -1, -1, -1, -1, -1, -1, -1, -1, -1, -1, -1, -1, -1, -1, -1, -1, -1, -1, -1, -1, -1, -1, -1, -1, -1, -1, -1, -1, -1, -1, -1, -1, -1, -1, -1, -1, -1, -1, -1, -1, -1, -1, -1, -1, -1, -1, -1, -1, -1, -1, -1, -1, 1, -1, -1, -1, -1, -1, -1, -1, -1
       | -1, -1, -1, -1, -1, -1, -1, -1, -1, -1, -1, -1, -1, -1, -1, -1, -1, -1, -1, -1, -1, -1, -1, -1, -1, -1, 1, -1, -1, -1, -1, -1, -1, -1, -1, -1, -1, -1, -1, -1, -1, -1, -1, -1, -1, -1, -1, -1, -1, -1, -1, -1, -1, -1, -1, -1, -1, -1, -1, -1, -1, -1, -1, -1, -1, -1, -1, -1, -1, -1, -1, -1, -1, -1, -1, -1, -1, -1, -1, -1, -1, -1, -1, -1, -1, -1, -1, -1, -1, -1, -1, -1, -1, -1, 1, -1, -1, -1, -1, -1, -1, -1
       | -1, -1, -1, -1, -1, -1, -1, -1, -1, -1, -1, -1, -1, -1, -1, -1, -1, -1, -1, -1, -1, -1, -1, -1, -1, -1, 1, -1, -1, -1, -1, -1, -1, -1, -1, -1, -1, -1, -1, -1, -1, -1, -1, -1, -1, -1, -1, -1, -1, -1, -1, -1, -1, -1, -1, -1, -1, -1, -1, -1, -1, -1, -1, -1, -1, -1, -1, -1, -1, -1, -1, -1, -1, -1, -1, -1, -1, -1, -1, -1, -1, -1, -1, -1, -1, -1, -1, -1, -1, -1, -1, -1, -1, -1, -1, 1, -1, -1, -1, -1, -1, -1
       | -1, -1, -1, -1, -1, -1, -1, -1, -1, -1, -1, -1, -1, -1, -1, -1, -1, -1, -1, -1, -1, -1, -1, -1, -1, -1, -1, 1, -1, -1, -1, -1, -1, -1, -1, -1, -1, -1, -1, -1, -1, -1, -1, -1, -1, -1, -1, -1, -1, -1, -1, -1, -1, -1, -1, -1, -1, -1, -1, -1, -1, -1, -1, -1, -1, -1, -1, -1, -1, -1, -1, -1, -1, -1, -1, -1, -1, -1, -1, -1, -1, -1, -1, -1, -1, -1, -1, -1, -1, -1, -1, -1, -1, -1, -1, -1, 1, -1, -1, -1, -1, -1
       | -1, -1, -1, -1, -1, -1, -1, -1, -1, -1, -1, -1, -1, -1, -1, -1, -1, -1, -1, -1, -1, -1, -1, -1, -1, -1, -1, -1, 1, -1, -1, -1, -1, -1, -1, -1, -1, -1, -1, -1, -1, -1, -1, -1, -1, -1, -1, -1, -1, -1, -1, -1, -1, -1, -1, -1, -1, -1, -1, -1, -1, -1, -1, -1, -1, -1, -1, -1, -1, -1, -1, -1, -1, -1, -1, -1, -1, -1, -1, -1, -1, -1, -1, -1, -1, -1, -1, -1, -1, -1, -1, -1, -1, -1, -1, -1, -1, 1, -1, -1, -1, -1
       | -1, -1, -1, -1, -1, -1, -1, -1, -1, -1, -1, -1, -1, -1, -1, -1, -1, -1, -1, -1, -1, -1, -1, -1, -1, -1, -1, -1, 1, -1, -1, -1, -1, -1, -1, -1, -1, -1, -1, -1, -1, -1, -1, -1, -1, -1, -1, -1, -1, -1, -1, -1, -1, -1, -1, -1, -1, -1, -1, -1, -1, -1, -1, -1, -1, -1, -1, -1, -1, -1, -1, -1, -1, -1, -1, -1, -1, -1, -1, -1, -1, -1, -1, -1, -1, -1, -1, -1, -1, -1, -1, -1, -1, -1, -1, -1, -1, -1, 1, -1, -1, -1
       | -1, -1, -1, -1, -1, -1, -1, -1, -1, -1, -1, -1, -1, -1, -1, -1, -1, -1, -1, -1, -1, -1, -1, -1, -1, -1, -1, -1, -1, 1, -1, -1, -1, -1, -1, -1, -1, -1, -1, -1, -1, -1, -1, -1, -1, -1, -1, -1, -1, -1, -1, -1, -1, -1, -1, -1, -1, -1, -1, -1, -1, -1, -1, -1, -1, -1, -1, -1, -1, -1, -1, -1, -1, -1, -1, -1, -1, -1, -1, -1, -1, -1, -1, -1, -1, -1, -1, -1, -1, -1, -1, -1, -1, -1, -1, -1, -1, -1, -1, 1, -1, -1
       | -1, -1, -1, -1, -1, -1, -1, -1, -1, -1, -1, -1, -1, -1, -1, -1, -1, -1, -1, -1, -1, -1, -1, -1, -1, -1, -1, -1, -1, -1, 1, -1, -1, -1, -1, -1, -1, -1, -1, -1, -1, -1, -1, -1, -1, -1, -1, -1, -1, -1, -1, -1, -1, -1, -1, -1, -1, -1, -1, -1, -1, -1, -1, -1, -1, -1, -1, -1, -1, -1, -1, -1, -1, -1, -1, -1, -1, -1, -1, -1, -1, -1, -1, -1, -1, -1, -1, -1, -1, -1, -1, -1, -1, -1, -1, -1, -1, -1, -1, -1, 1, -1
       | -1, -1, -1, -1, -1, -1, -1, -1, -1, -1, -1, -1, -1, -1, -1, -1, -1, -1, -1, -1, -1, -1, -1, -1, -1, -1, -1, -1, -1, -1, 1, -1, -1, -1, -1, -1, -1, -1, -1, -1, -1, -1, -1, -1, -1, -1, -1, -1, -1, -1, -1, -1, -1, -1, -1, -1, -1, -1, -1, -1, -1, -1, -1, -1, -1, -1, -1, -1, -1, -1, -1, -1, -1, -1, -1, -1, -1, -1, -1, -1, -1, -1, -1, -1, -1, -1, -1, -1, -1, -1, -1, -1, -1, -1, -1, -1, -1, -1, -1, -1, -1, 1 |]);

% ---- platform ----
P = 8;
nFCR = 8;
nCoreTypes = 3;
nModes = 1;
ctype = [1, 1, 1, 2, 2, 2, 3, 3];
fcr = [1, 2, 3, 4, 5, 6, 7, 8];
core_model = ["proc_0", "proc_1", "proc_2"];
max_sil = [4, 4, 4];
core_mem = [64000, 64000, 64000];
partitionable = [false, false, false];
partition_cost = [0, 0, 0];
n_modes_of = [1, 1, 1];
fcr_price = [10, 10, 10, 20, 20, 20, 30, 30];
core_price = array2d(1..3, 1..1,
  [| 10
     | 20
     | 30 |]);
core_power = array2d(1..3, 1..1,
  [| 50
     | 60
     | 70 |]);

% symmetry classes: slots that are genuinely interchangeable
nSymClasses = 0;
symClassSize = [];
maxSymClassSize = 1;
symClass = array2d(1..1, 1..1,
  [| 0 |]);
nInterGroups = 3;
maxInterGroupSize = 3;
interGroupSize = [3, 3, 2];
interGroup = array2d(1..3, 1..3,
  [| 1, 2, 3
     | 4, 5, 6
     | 7, 8, 0 |]);
nTmplGroups = 3;
maxTmplGroupSize = 3;
tmplGroupSize = [3, 3, 2];
tmplGroup = array2d(1..3, 1..3,
  [| 1, 2, 3
     | 4, 5, 6
     | 7, 8, 0 |]);

% ---- timing ----
wcet = array3d(1..102, 1..3, 1..1, [9, 1000000, 8, 13, 1000000, 1000000, 1000000, 1000000, 9, 1000000, 8, 1000000, 13, 1000000, 1000000, 13, 1000000, 1000000, 1000000, 13, 1000000, 1000000, 12, 11, 12, 2, 1000000, 8, 1000000, 10, 1000000, 20, 19, 1000000, 5, 19, 13, 1000000, 1000000, 1000000, 1000000, 11, 18, 14, 1000000, 1000000, 1000000, 15, 1000000, 10, 1000000, 1000000, 12, 11, 1000000, 14, 1000000, 7, 9, 1000000, 8, 1000000, 10, 10, 10, 1000000, 1000000, 21, 1000000, 1000000, 5, 1000000, 12, 1000000, 1000000, 6, 1000000, 1000000, 1000000, 14, 1000000, 1000000, 2, 1000000, 1000000, 1000000, 4, 1000000, 14, 1000000, 1000000, 12, 11, 9, 1000000, 8, 3, 1000000, 2, 3, 1000000, 2, 9, 1000000, 8, 9, 1000000, 8, 13, 1000000, 1000000, 4, 1000000, 1000000, 4, 1000000, 1000000, 13, 1000000, 1000000, 13, 1000000, 1000000, 1000000, 1000000, 9, 1000000, 1000000, 3, 1000000, 1000000, 3, 1000000, 1000000, 9, 1000000, 1000000, 9, 1000000, 8, 1000000, 1000000, 2, 1000000, 1000000, 2, 1000000, 1000000, 8, 1000000, 1000000, 8, 1000000, 13, 1000000, 1000000, 4, 1000000, 1000000, 4, 1000000, 1000000, 13, 1000000, 1000000, 13, 1000000, 1000000, 13, 1000000, 1000000, 4, 1000000, 1000000, 4, 1000000, 1000000, 13, 1000000, 1000000, 13, 1000000, 1000000, 1000000, 13, 1000000, 1000000, 4, 1000000, 1000000, 4, 1000000, 1000000, 13, 1000000, 1000000, 13, 1000000, 1000000, 12, 11, 1000000, 4, 3, 1000000, 4, 3, 1000000, 12, 11, 1000000, 12, 11, 4, 1, 1000000, 2, 1000000, 3, 1000000, 6, 6, 1000000, 2, 6, 4, 1000000, 1000000, 1000000, 1000000, 3, 5, 4, 1000000, 1000000, 1000000, 4, 1000000, 3, 1000000, 1000000, 10, 1000000, 1000000, 12, 11, 1000000, 4, 1000000, 1000000, 14, 1000000, 7, 9, 1000000, 2, 1000000, 3, 8, 1000000, 10, 10, 10, 1000000, 1000000, 6, 1000000, 1000000, 21, 1000000, 1000000, 5, 1000000, 4, 1000000, 1000000, 12, 1000000, 1000000, 6, 1000000, 1000000, 1000000, 4, 1000000, 1000000, 14, 1000000, 1000000, 2, 1000000, 1000000, 1000000, 1, 1000000, 1000000, 4, 1000000, 14, 1000000, 1000000, 4, 3, 1000000, 12, 11]);
mem_req = [1, 1, 1, 1, 1, 1, 1, 1, 1, 1, 1, 1, 1, 1, 1, 1, 1, 1, 1, 1, 1, 1, 1, 1, 1, 1, 1, 1, 1, 1, 1, 1, 1, 1, 1, 1, 1, 1, 1, 1, 1, 1, 1, 1, 1, 1, 1, 1, 1, 1, 1, 1, 1, 1, 1, 1, 1, 1, 1, 1, 1, 1, 1, 1, 1, 1, 1, 1, 1, 1, 1, 1, 1, 1, 1, 1, 1, 1, 1, 1, 1, 1, 1, 1, 1, 1, 1, 1, 1, 1, 1, 1, 1, 1, 1, 1, 1, 1, 1, 1, 1, 1];

% ---- safety ----
sil_req_parent = [3, 3, 3, 3, 3, 3, 3, 3, 2, 2, 2, 2, 2, 2, 2, 2, 1, 0, 1, 0, 1, 0, 1, 0, 1, 0, 1, 0, 1, 0, 1, 3, 3, 3, 3, 3, 3, 3, 3, 3, 3, 3, 3, 3, 3, 3, 3, 3, 3, 3, 3, 3, 3, 3, 3, 3, 3, 3, 3, 3, 3, 3, 3, 3, 3, 3, 3, 3, 3, 3, 3, 2, 2, 2, 2, 2, 2, 2, 2, 1, 1, 0, 1, 1, 0, 1, 1, 0, 1, 1, 0, 1, 1, 0, 1, 1, 0, 1, 1, 0, 1, 1];
dev_base = [100, 100, 100, 100, 100, 100, 100, 100, 100, 100, 100, 100, 100, 100, 100, 100, 100, 100, 100, 100, 100, 100, 100, 100, 100, 100, 100, 100, 100, 100, 100, 100, 100, 100, 100, 100, 100, 100, 100, 100, 100, 100, 100, 100, 100, 100, 100, 100, 100, 100, 100, 100, 100, 100, 100, 100, 100, 100, 100, 100, 100, 100, 100, 100, 100, 100, 100, 100, 100, 100, 100, 100, 100, 100, 100, 100, 100, 100, 100, 100, 100, 100, 100, 100, 100, 100, 100, 100, 100, 100, 100, 100, 100, 100, 100, 100, 100, 100, 100, 100, 100, 100];
dev_k = array1d(0..4, [100, 113, 225, 518, 906]);
allow_promotion = true;

% ---- design constraints ----
period_ub = [908];
min_wcet = [8, 13, 9, 8, 13, 13, 13, 11, 2, 8, 19, 5, 13, 11, 14, 15, 10, 11, 14, 7, 8, 10, 21, 5, 12, 6, 14, 2, 4, 14, 11, 8, 2, 2, 8, 8, 13, 4, 4, 13, 13, 9, 3, 3, 9, 9, 8, 2, 2, 8, 8, 13, 4, 4, 13, 13, 13, 4, 4, 13, 13, 13, 4, 4, 13, 13, 11, 3, 3, 11, 11, 1, 2, 6, 2, 4, 3, 4, 4, 3, 10, 11, 4, 14, 7, 2, 8, 10, 6, 21, 5, 4, 12, 6, 4, 14, 2, 1, 4, 14, 3, 11];
min_procs = [1];
period_mode_partitioned = false;

% ---- latency ----
nLatCon = 0;
lat_src = [];
lat_dst = [];
lat_rho = [];
lat_ub  = [];

% ---- safety patterns: guarded superposition ----
nPat = 9;
pat_name = ["none", "low_sil_doer_checker", "two_of_two_high_sil", "high_sil_isolated_checker", "mixed_sil_doer_checker", "same_cpu_doer_checker", "dual_two_of_two", "one_of_two_failover", "low_sil_diverse_doer_checker"];
pat_recurring = [0, 2, 2, 2, 3, 1, 4, 2, 2];
pat_allowed = array2d(1..102, 1..9,
  [| false, false, true, true, true, false, true, false, false
     | false, false, true, true, true, false, true, false, false
     | false, false, true, true, true, false, true, false, false
     | false, false, true, true, true, false, true, false, false
     | false, false, true, true, true, false, true, false, false
     | false, false, true, true, true, false, true, false, false
     | false, false, true, true, true, false, true, false, false
     | false, false, true, true, true, false, true, false, false
     | false, true, false, false, false, false, false, false, true
     | false, true, false, false, false, false, false, false, true
     | false, true, false, false, false, false, false, false, true
     | false, true, false, false, false, false, false, false, true
     | false, true, false, false, false, false, false, false, true
     | false, true, false, false, false, false, false, false, true
     | false, true, false, false, false, false, false, false, true
     | false, true, false, false, false, false, false, false, true
     | true, true, false, false, false, false, false, true, true
     | true, false, false, false, false, false, false, true, false
     | true, true, false, false, false, false, false, true, true
     | true, false, false, false, false, false, false, true, false
     | true, true, false, false, false, false, false, true, true
     | true, false, false, false, false, false, false, true, false
     | true, true, false, false, false, false, false, true, true
     | true, false, false, false, false, false, false, true, false
     | true, true, false, false, false, false, false, true, true
     | true, false, false, false, false, false, false, true, false
     | true, true, false, false, false, false, false, true, true
     | true, false, false, false, false, false, false, true, false
     | true, true, false, false, false, false, false, true, true
     | true, false, false, false, false, false, false, true, false
     | true, true, false, false, false, false, false, true, true
     | false, false, true, true, true, false, true, false, false
     | false, false, true, true, true, false, true, false, false
     | false, false, true, true, true, false, true, false, false
     | false, false, true, true, true, false, true, false, false
     | false, false, true, true, true, false, true, false, false
     | false, false, true, true, true, false, true, false, false
     | false, false, true, true, true, false, true, false, false
     | false, false, true, true, true, false, true, false, false
     | false, false, true, true, true, false, true, false, false
     | false, false, true, true, true, false, true, false, false
     | false, false, true, true, true, false, true, false, false
     | false, false, true, true, true, false, true, false, false
     | false, false, true, true, true, false, true, false, false
     | false, false, true, true, true, false, true, false, false
     | false, false, true, true, true, false, true, false, false
     | false, false, true, true, true, false, true, false, false
     | false, false, true, true, true, false, true, false, false
     | false, false, true, true, true, false, true, false, false
     | false, false, true, true, true, false, true, false, false
     | false, false, true, true, true, false, true, false, false
     | false, false, true, true, true, false, true, false, false
     | false, false, true, true, true, false, true, false, false
     | false, false, true, true, true, false, true, false, false
     | false, false, true, true, true, false, true, false, false
     | false, false, true, true, true, false, true, false, false
     | false, false, true, true, true, false, true, false, false
     | false, false, true, true, true, false, true, false, false
     | false, false, true, true, true, false, true, false, false
     | false, false, true, true, true, false, true, false, false
     | false, false, true, true, true, false, true, false, false
     | false, false, true, true, true, false, true, false, false
     | false, false, true, true, true, false, true, false, false
     | false, false, true, true, true, false, true, false, false
     | false, false, true, true, true, false, true, false, false
     | false, false, true, true, true, false, true, false, false
     | false, false, true, true, true, false, true, false, false
     | false, false, true, true, true, false, true, false, false
     | false, false, true, true, true, false, true, false, false
     | false, false, true, true, true, false, true, false, false
     | false, false, true, true, true, false, true, false, false
     | false, true, false, false, false, false, false, false, true
     | false, true, false, false, false, false, false, false, true
     | false, true, false, false, false, false, false, false, true
     | false, true, false, false, false, false, false, false, true
     | false, true, false, false, false, false, false, false, true
     | false, true, false, false, false, false, false, false, true
     | false, true, false, false, false, false, false, false, true
     | false, true, false, false, false, false, false, false, true
     | true, true, false, false, false, false, false, true, true
     | true, true, false, false, false, false, false, true, true
     | true, false, false, false, false, false, false, true, false
     | true, true, false, false, false, false, false, true, true
     | true, true, false, false, false, false, false, true, true
     | true, false, false, false, false, false, false, true, false
     | true, true, false, false, false, false, false, true, true
     | true, true, false, false, false, false, false, true, true
     | true, false, false, false, false, false, false, true, false
     | true, true, false, false, false, false, false, true, true
     | true, true, false, false, false, false, false, true, true
     | true, false, false, false, false, false, false, true, false
     | true, true, false, false, false, false, false, true, true
     | true, true, false, false, false, false, false, true, true
     | true, false, false, false, false, false, false, true, false
     | true, true, false, false, false, false, false, true, true
     | true, true, false, false, false, false, false, true, true
     | true, false, false, false, false, false, false, true, false
     | true, true, false, false, false, false, false, true, true
     | true, true, false, false, false, false, false, true, true
     | true, false, false, false, false, false, false, true, false
     | true, true, false, false, false, false, false, true, true
     | true, true, false, false, false, false, false, true, true |]);
par_owner = [1, 2, 3, 4, 5, 6, 7, 8, 9, 10, 11, 12, 13, 14, 15, 16, 17, 18, 19, 20, 21, 22, 23, 24, 25, 26, 27, 28, 29, 30, 31, 1, 1, 1, 1, 1, 2, 2, 2, 2, 2, 3, 3, 3, 3, 3, 4, 4, 4, 4, 4, 5, 5, 5, 5, 5, 6, 6, 6, 6, 6, 7, 7, 7, 7, 7, 8, 8, 8, 8, 8, 9, 10, 11, 12, 13, 14, 15, 16, 17, 17, 18, 19, 19, 20, 21, 21, 22, 23, 23, 24, 25, 25, 26, 27, 27, 28, 29, 29, 30, 31, 31];
node_owner = [1, 2, 3, 4, 5, 6, 7, 8, 9, 10, 11, 12, 13, 14, 15, 16, 17, 18, 19, 20, 21, 22, 23, 24, 25, 26, 27, 28, 29, 30, 31, 1, 1, 1, 1, 1, 2, 2, 2, 2, 2, 3, 3, 3, 3, 3, 4, 4, 4, 4, 4, 5, 5, 5, 5, 5, 6, 6, 6, 6, 6, 7, 7, 7, 7, 7, 8, 8, 8, 8, 8, 9, 10, 11, 12, 13, 14, 15, 16, 17, 17, 18, 19, 19, 20, 21, 21, 22, 23, 23, 24, 25, 25, 26, 27, 27, 28, 29, 29, 30, 31, 31];
owner_node = [1, 2, 3, 4, 5, 6, 7, 8, 9, 10, 11, 12, 13, 14, 15, 16, 17, 18, 19, 20, 21, 22, 23, 24, 25, 26, 27, 28, 29, 30, 31, 1, 1, 1, 1, 1, 2, 2, 2, 2, 2, 3, 3, 3, 3, 3, 4, 4, 4, 4, 4, 5, 5, 5, 5, 5, 6, 6, 6, 6, 6, 7, 7, 7, 7, 7, 8, 8, 8, 8, 8, 9, 10, 11, 12, 13, 14, 15, 16, 17, 17, 18, 19, 19, 20, 21, 21, 22, 23, 23, 24, 25, 25, 26, 27, 27, 28, 29, 29, 30, 31, 31];
node_guard = array2d(1..102, 1..9,
  [| true, true, true, true, true, true, true, true, true
     | true, true, true, true, true, true, true, true, true
     | true, true, true, true, true, true, true, true, true
     | true, true, true, true, true, true, true, true, true
     | true, true, true, true, true, true, true, true, true
     | true, true, true, true, true, true, true, true, true
     | true, true, true, true, true, true, true, true, true
     | true, true, true, true, true, true, true, true, true
     | true, true, true, true, true, true, true, true, true
     | true, true, true, true, true, true, true, true, true
     | true, true, true, true, true, true, true, true, true
     | true, true, true, true, true, true, true, true, true
     | true, true, true, true, true, true, true, true, true
     | true, true, true, true, true, true, true, true, true
     | true, true, true, true, true, true, true, true, true
     | true, true, true, true, true, true, true, true, true
     | true, true, true, true, true, true, true, true, true
     | true, true, true, true, true, true, true, true, true
     | true, true, true, true, true, true, true, true, true
     | true, true, true, true, true, true, true, true, true
     | true, true, true, true, true, true, true, true, true
     | true, true, true, true, true, true, true, true, true
     | true, true, true, true, true, true, true, true, true
     | true, true, true, true, true, true, true, true, true
     | true, true, true, true, true, true, true, true, true
     | true, true, true, true, true, true, true, true, true
     | true, true, true, true, true, true, true, true, true
     | true, true, true, true, true, true, true, true, true
     | true, true, true, true, true, true, true, true, true
     | true, true, true, true, true, true, true, true, true
     | true, true, true, true, true, true, true, true, true
     | false, false, true, false, false, false, true, false, false
     | false, false, false, true, true, false, false, false, false
     | false, false, false, false, true, false, false, false, false
     | false, false, false, false, false, false, true, false, false
     | false, false, false, false, false, false, true, false, false
     | false, false, true, false, false, false, true, false, false
     | false, false, false, true, true, false, false, false, false
     | false, false, false, false, true, false, false, false, false
     | false, false, false, false, false, false, true, false, false
     | false, false, false, false, false, false, true, false, false
     | false, false, true, false, false, false, true, false, false
     | false, false, false, true, true, false, false, false, false
     | false, false, false, false, true, false, false, false, false
     | false, false, false, false, false, false, true, false, false
     | false, false, false, false, false, false, true, false, false
     | false, false, true, false, false, false, true, false, false
     | false, false, false, true, true, false, false, false, false
     | false, false, false, false, true, false, false, false, false
     | false, false, false, false, false, false, true, false, false
     | false, false, false, false, false, false, true, false, false
     | false, false, true, false, false, false, true, false, false
     | false, false, false, true, true, false, false, false, false
     | false, false, false, false, true, false, false, false, false
     | false, false, false, false, false, false, true, false, false
     | false, false, false, false, false, false, true, false, false
     | false, false, true, false, false, false, true, false, false
     | false, false, false, true, true, false, false, false, false
     | false, false, false, false, true, false, false, false, false
     | false, false, false, false, false, false, true, false, false
     | false, false, false, false, false, false, true, false, false
     | false, false, true, false, false, false, true, false, false
     | false, false, false, true, true, false, false, false, false
     | false, false, false, false, true, false, false, false, false
     | false, false, false, false, false, false, true, false, false
     | false, false, false, false, false, false, true, false, false
     | false, false, true, false, false, false, true, false, false
     | false, false, false, true, true, false, false, false, false
     | false, false, false, false, true, false, false, false, false
     | false, false, false, false, false, false, true, false, false
     | false, false, false, false, false, false, true, false, false
     | false, true, false, false, false, false, false, false, true
     | false, true, false, false, false, false, false, false, true
     | false, true, false, false, false, false, false, false, true
     | false, true, false, false, false, false, false, false, true
     | false, true, false, false, false, false, false, false, true
     | false, true, false, false, false, false, false, false, true
     | false, true, false, false, false, false, false, false, true
     | false, true, false, false, false, false, false, false, true
     | false, true, false, false, false, false, false, false, true
     | false, false, false, false, false, false, false, true, false
     | false, false, false, false, false, false, false, true, false
     | false, true, false, false, false, false, false, false, true
     | false, false, false, false, false, false, false, true, false
     | false, false, false, false, false, false, false, true, false
     | false, true, false, false, false, false, false, false, true
     | false, false, false, false, false, false, false, true, false
     | false, false, false, false, false, false, false, true, false
     | false, true, false, false, false, false, false, false, true
     | false, false, false, false, false, false, false, true, false
     | false, false, false, false, false, false, false, true, false
     | false, true, false, false, false, false, false, false, true
     | false, false, false, false, false, false, false, true, false
     | false, false, false, false, false, false, false, true, false
     | false, true, false, false, false, false, false, false, true
     | false, false, false, false, false, false, false, true, false
     | false, false, false, false, false, false, false, true, false
     | false, true, false, false, false, false, false, false, true
     | false, false, false, false, false, false, false, true, false
     | false, false, false, false, false, false, false, true, false
     | false, true, false, false, false, false, false, false, true
     | false, false, false, false, false, false, false, true, false |]);
nPE = 377;
pe_src = [1, 32, 3, 1, 33, 3, 1, 1, 33, 34, 33, 3, 3, 1, 32, 35, 36, 35, 3, 3, 3, 2, 37, 1, 2, 38, 1, 2, 2, 38, 39, 38, 1, 1, 2, 37, 40, 41, 40, 1, 1, 1, 3, 42, 13, 16, 21, 3, 43, 13, 16, 21, 3, 3, 43, 44, 43, 13, 16, 21, 13, 16, 21, 3, 42, 45, 46, 45, 13, 16, 21, 13, 16, 21, 13, 16, 21, 4, 47, 1, 6, 19, 20, 4, 48, 1, 6, 19, 20, 4, 4, 48, 49, 48, 1, 6, 19, 20, 1, 6, 19, 20, 4, 47, 50, 51, 50, 1, 6, 19, 20, 1, 6, 19, 20, 1, 6, 19, 20, 5, 52, 2, 29, 5, 53, 2, 29, 5, 5, 53, 54, 53, 2, 29, 2, 29, 5, 52, 55, 56, 55, 2, 29, 2, 29, 2, 29, 6, 57, 7, 6, 58, 7, 6, 6, 58, 59, 58, 7, 7, 6, 57, 60, 61, 60, 7, 7, 7, 7, 62, 14, 7, 63, 14, 7, 7, 63, 64, 63, 14, 14, 7, 62, 65, 66, 65, 14, 14, 14, 8, 67, 6, 8, 68, 6, 8, 8, 68, 69, 68, 6, 6, 8, 67, 70, 71, 70, 6, 6, 6, 9, 72, 4, 11, 9, 72, 4, 11, 10, 73, 2, 10, 73, 2, 11, 74, 10, 11, 74, 10, 12, 75, 10, 12, 75, 10, 13, 76, 18, 13, 76, 18, 14, 77, 15, 17, 25, 14, 77, 15, 17, 25, 15, 78, 23, 31, 27, 15, 78, 23, 31, 27, 16, 79, 21, 24, 8, 28, 16, 79, 21, 24, 8, 28, 17, 80, 5, 26, 81, 5, 26, 17, 80, 5, 26, 82, 30, 19, 83, 12, 23, 84, 12, 23, 19, 83, 12, 23, 85, 22, 21, 86, 14, 87, 14, 21, 86, 14, 88, 16, 8, 23, 89, 22, 26, 90, 22, 26, 23, 89, 22, 26, 91, 25, 25, 92, 17, 5, 27, 93, 17, 5, 27, 25, 92, 17, 5, 27, 94, 11, 27, 95, 5, 16, 96, 5, 16, 27, 95, 5, 16, 97, 15, 29, 98, 16, 27, 99, 16, 27, 29, 98, 16, 27, 100, 28, 31, 101, 30, 9, 102, 30, 9, 31, 101, 30, 9];
pe_dst = [32, 1, 32, 33, 1, 33, 33, 34, 34, 33, 1, 33, 34, 32, 1, 36, 35, 1, 32, 35, 36, 37, 2, 37, 38, 2, 38, 38, 39, 39, 38, 2, 38, 39, 37, 2, 41, 40, 2, 37, 40, 41, 42, 3, 42, 42, 42, 43, 3, 43, 43, 43, 43, 44, 44, 43, 3, 43, 43, 43, 44, 44, 44, 42, 3, 46, 45, 3, 42, 42, 42, 45, 45, 45, 46, 46, 46, 47, 4, 47, 47, 47, 47, 48, 4, 48, 48, 48, 48, 48, 49, 49, 48, 4, 48, 48, 48, 48, 49, 49, 49, 49, 47, 4, 51, 50, 4, 47, 47, 47, 47, 50, 50, 50, 50, 51, 51, 51, 51, 52, 5, 52, 52, 53, 5, 53, 53, 53, 54, 54, 53, 5, 53, 53, 54, 54, 52, 5, 56, 55, 5, 52, 52, 55, 55, 56, 56, 57, 6, 57, 58, 6, 58, 58, 59, 59, 58, 6, 58, 59, 57, 6, 61, 60, 6, 57, 60, 61, 62, 7, 62, 63, 7, 63, 63, 64, 64, 63, 7, 63, 64, 62, 7, 66, 65, 7, 62, 65, 66, 67, 8, 67, 68, 8, 68, 68, 69, 69, 68, 8, 68, 69, 67, 8, 71, 70, 8, 67, 70, 71, 72, 9, 72, 72, 72, 9, 72, 72, 73, 10, 73, 73, 10, 73, 74, 11, 74, 74, 11, 74, 75, 12, 75, 75, 12, 75, 76, 13, 76, 76, 13, 76, 77, 14, 77, 77, 77, 77, 14, 77, 77, 77, 78, 15, 78, 78, 78, 78, 15, 78, 78, 78, 79, 16, 79, 79, 79, 79, 79, 16, 79, 79, 79, 79, 80, 17, 80, 80, 17, 81, 81, 80, 17, 80, 80, 18, 82, 83, 19, 83, 83, 19, 84, 84, 83, 19, 83, 83, 20, 85, 86, 21, 86, 21, 87, 86, 21, 86, 22, 88, 88, 89, 23, 89, 89, 23, 90, 90, 89, 23, 89, 89, 24, 91, 92, 25, 92, 92, 92, 25, 93, 93, 93, 92, 25, 92, 92, 92, 26, 94, 95, 27, 95, 95, 27, 96, 96, 95, 27, 95, 95, 28, 97, 98, 29, 98, 98, 29, 99, 99, 98, 29, 98, 98, 30, 100, 101, 31, 101, 101, 31, 102, 102, 101, 31, 101, 101];
pe_tok = [0, 1, 1, 0, 1, 1, 0, 0, 1, 1, 1, 1, 1, 0, 1, 0, 1, 1, 1, 1, 1, 0, 1, 0, 0, 1, 0, 0, 0, 1, 1, 1, 0, 0, 0, 1, 0, 1, 1, 0, 0, 0, 0, 1, 0, 0, 0, 0, 1, 0, 0, 0, 0, 0, 1, 1, 1, 0, 0, 0, 0, 0, 0, 0, 1, 0, 1, 1, 0, 0, 0, 0, 0, 0, 0, 0, 0, 0, 1, 1, 1, 1, 0, 0, 1, 1, 1, 1, 0, 0, 0, 1, 1, 1, 1, 1, 1, 0, 1, 1, 1, 0, 0, 1, 0, 1, 1, 1, 1, 1, 0, 1, 1, 1, 0, 1, 1, 1, 0, 0, 1, 0, 0, 0, 1, 0, 0, 0, 0, 1, 1, 1, 0, 0, 0, 0, 0, 1, 0, 1, 1, 0, 0, 0, 0, 0, 0, 0, 1, 0, 0, 1, 0, 0, 0, 1, 1, 1, 0, 0, 0, 1, 0, 1, 1, 0, 0, 0, 0, 1, 0, 0, 1, 0, 0, 0, 1, 1, 1, 0, 0, 0, 1, 0, 1, 1, 0, 0, 0, 0, 1, 0, 0, 1, 0, 0, 0, 1, 1, 1, 0, 0, 0, 1, 0, 1, 1, 0, 0, 0, 0, 1, 0, 1, 0, 1, 0, 1, 0, 1, 0, 0, 1, 0, 0, 1, 0, 0, 1, 0, 0, 1, 0, 0, 1, 0, 0, 1, 0, 0, 1, 0, 0, 1, 1, 1, 0, 0, 1, 1, 1, 0, 0, 1, 0, 0, 0, 0, 1, 0, 0, 0, 0, 1, 0, 0, 1, 1, 0, 1, 0, 0, 1, 1, 0, 1, 0, 0, 1, 0, 0, 0, 1, 0, 0, 1, 1, 0, 1, 1, 0, 1, 1, 0, 0, 1, 1, 0, 1, 1, 0, 1, 0, 1, 0, 0, 1, 0, 1, 0, 1, 0, 1, 1, 1, 1, 1, 1, 0, 1, 1, 1, 1, 1, 0, 1, 1, 1, 0, 1, 1, 1, 0, 0, 1, 1, 1, 0, 1, 0, 0, 1, 1, 1, 1, 1, 1, 0, 1, 1, 1, 1, 0, 0, 1, 0, 0, 1, 0, 0, 0, 1, 0, 0, 1, 0, 0, 1, 1, 0, 1, 1, 0, 0, 1, 1, 0];
pe_owner = [1, 1, 1, 1, 1, 1, 1, 1, 1, 1, 1, 1, 1, 1, 1, 1, 1, 1, 1, 1, 1, 2, 2, 2, 2, 2, 2, 2, 2, 2, 2, 2, 2, 2, 2, 2, 2, 2, 2, 2, 2, 2, 3, 3, 3, 3, 3, 3, 3, 3, 3, 3, 3, 3, 3, 3, 3, 3, 3, 3, 3, 3, 3, 3, 3, 3, 3, 3, 3, 3, 3, 3, 3, 3, 3, 3, 3, 4, 4, 4, 4, 4, 4, 4, 4, 4, 4, 4, 4, 4, 4, 4, 4, 4, 4, 4, 4, 4, 4, 4, 4, 4, 4, 4, 4, 4, 4, 4, 4, 4, 4, 4, 4, 4, 4, 4, 4, 4, 4, 5, 5, 5, 5, 5, 5, 5, 5, 5, 5, 5, 5, 5, 5, 5, 5, 5, 5, 5, 5, 5, 5, 5, 5, 5, 5, 5, 5, 6, 6, 6, 6, 6, 6, 6, 6, 6, 6, 6, 6, 6, 6, 6, 6, 6, 6, 6, 6, 6, 7, 7, 7, 7, 7, 7, 7, 7, 7, 7, 7, 7, 7, 7, 7, 7, 7, 7, 7, 7, 7, 8, 8, 8, 8, 8, 8, 8, 8, 8, 8, 8, 8, 8, 8, 8, 8, 8, 8, 8, 8, 8, 9, 9, 9, 9, 9, 9, 9, 9, 10, 10, 10, 10, 10, 10, 11, 11, 11, 11, 11, 11, 12, 12, 12, 12, 12, 12, 13, 13, 13, 13, 13, 13, 14, 14, 14, 14, 14, 14, 14, 14, 14, 14, 15, 15, 15, 15, 15, 15, 15, 15, 15, 15, 16, 16, 16, 16, 16, 16, 16, 16, 16, 16, 16, 16, 17, 17, 17, 17, 17, 17, 17, 17, 17, 17, 17, 18, 18, 19, 19, 19, 19, 19, 19, 19, 19, 19, 19, 19, 20, 20, 21, 21, 21, 21, 21, 21, 21, 21, 22, 22, 22, 23, 23, 23, 23, 23, 23, 23, 23, 23, 23, 23, 24, 24, 25, 25, 25, 25, 25, 25, 25, 25, 25, 25, 25, 25, 25, 25, 26, 26, 27, 27, 27, 27, 27, 27, 27, 27, 27, 27, 27, 28, 28, 29, 29, 29, 29, 29, 29, 29, 29, 29, 29, 29, 30, 30, 31, 31, 31, 31, 31, 31, 31, 31, 31, 31, 31];
pe_guard = array2d(1..377, 1..9,
  [| false, false, true, false, false, false, false, false, false
     | false, false, true, false, false, false, false, false, false
     | false, false, true, false, false, false, false, false, false
     | false, false, false, true, false, false, false, false, false
     | false, false, false, true, false, false, false, false, false
     | false, false, false, true, false, false, false, false, false
     | false, false, false, false, true, false, false, false, false
     | false, false, false, false, true, false, false, false, false
     | false, false, false, false, true, false, false, false, false
     | false, false, false, false, true, false, false, false, false
     | false, false, false, false, true, false, false, false, false
     | false, false, false, false, true, false, false, false, false
     | false, false, false, false, true, false, false, false, false
     | false, false, false, false, false, false, true, false, false
     | false, false, false, false, false, false, true, false, false
     | false, false, false, false, false, false, true, false, false
     | false, false, false, false, false, false, true, false, false
     | false, false, false, false, false, false, true, false, false
     | false, false, false, false, false, false, true, false, false
     | false, false, false, false, false, false, true, false, false
     | false, false, false, false, false, false, true, false, false
     | false, false, true, false, false, false, false, false, false
     | false, false, true, false, false, false, false, false, false
     | false, false, true, false, false, false, false, false, false
     | false, false, false, true, false, false, false, false, false
     | false, false, false, true, false, false, false, false, false
     | false, false, false, true, false, false, false, false, false
     | false, false, false, false, true, false, false, false, false
     | false, false, false, false, true, false, false, false, false
     | false, false, false, false, true, false, false, false, false
     | false, false, false, false, true, false, false, false, false
     | false, false, false, false, true, false, false, false, false
     | false, false, false, false, true, false, false, false, false
     | false, false, false, false, true, false, false, false, false
     | false, false, false, false, false, false, true, false, false
     | false, false, false, false, false, false, true, false, false
     | false, false, false, false, false, false, true, false, false
     | false, false, false, false, false, false, true, false, false
     | false, false, false, false, false, false, true, false, false
     | false, false, false, false, false, false, true, false, false
     | false, false, false, false, false, false, true, false, false
     | false, false, false, false, false, false, true, false, false
     | false, false, true, false, false, false, false, false, false
     | false, false, true, false, false, false, false, false, false
     | false, false, true, false, false, false, false, false, false
     | false, false, true, false, false, false, false, false, false
     | false, false, true, false, false, false, false, false, false
     | false, false, false, true, false, false, false, false, false
     | false, false, false, true, false, false, false, false, false
     | false, false, false, true, false, false, false, false, false
     | false, false, false, true, false, false, false, false, false
     | false, false, false, true, false, false, false, false, false
     | false, false, false, false, true, false, false, false, false
     | false, false, false, false, true, false, false, false, false
     | false, false, false, false, true, false, false, false, false
     | false, false, false, false, true, false, false, false, false
     | false, false, false, false, true, false, false, false, false
     | false, false, false, false, true, false, false, false, false
     | false, false, false, false, true, false, false, false, false
     | false, false, false, false, true, false, false, false, false
     | false, false, false, false, true, false, false, false, false
     | false, false, false, false, true, false, false, false, false
     | false, false, false, false, true, false, false, false, false
     | false, false, false, false, false, false, true, false, false
     | false, false, false, false, false, false, true, false, false
     | false, false, false, false, false, false, true, false, false
     | false, false, false, false, false, false, true, false, false
     | false, false, false, false, false, false, true, false, false
     | false, false, false, false, false, false, true, false, false
     | false, false, false, false, false, false, true, false, false
     | false, false, false, false, false, false, true, false, false
     | false, false, false, false, false, false, true, false, false
     | false, false, false, false, false, false, true, false, false
     | false, false, false, false, false, false, true, false, false
     | false, false, false, false, false, false, true, false, false
     | false, false, false, false, false, false, true, false, false
     | false, false, false, false, false, false, true, false, false
     | false, false, true, false, false, false, false, false, false
     | false, false, true, false, false, false, false, false, false
     | false, false, true, false, false, false, false, false, false
     | false, false, true, false, false, false, false, false, false
     | false, false, true, false, false, false, false, false, false
     | false, false, true, false, false, false, false, false, false
     | false, false, false, true, false, false, false, false, false
     | false, false, false, true, false, false, false, false, false
     | false, false, false, true, false, false, false, false, false
     | false, false, false, true, false, false, false, false, false
     | false, false, false, true, false, false, false, false, false
     | false, false, false, true, false, false, false, false, false
     | false, false, false, false, true, false, false, false, false
     | false, false, false, false, true, false, false, false, false
     | false, false, false, false, true, false, false, false, false
     | false, false, false, false, true, false, false, false, false
     | false, false, false, false, true, false, false, false, false
     | false, false, false, false, true, false, false, false, false
     | false, false, false, false, true, false, false, false, false
     | false, false, false, false, true, false, false, false, false
     | false, false, false, false, true, false, false, false, false
     | false, false, false, false, true, false, false, false, false
     | false, false, false, false, true, false, false, false, false
     | false, false, false, false, true, false, false, false, false
     | false, false, false, false, true, false, false, false, false
     | false, false, false, false, false, false, true, false, false
     | false, false, false, false, false, false, true, false, false
     | false, false, false, false, false, false, true, false, false
     | false, false, false, false, false, false, true, false, false
     | false, false, false, false, false, false, true, false, false
     | false, false, false, false, false, false, true, false, false
     | false, false, false, false, false, false, true, false, false
     | false, false, false, false, false, false, true, false, false
     | false, false, false, false, false, false, true, false, false
     | false, false, false, false, false, false, true, false, false
     | false, false, false, false, false, false, true, false, false
     | false, false, false, false, false, false, true, false, false
     | false, false, false, false, false, false, true, false, false
     | false, false, false, false, false, false, true, false, false
     | false, false, false, false, false, false, true, false, false
     | false, false, false, false, false, false, true, false, false
     | false, false, false, false, false, false, true, false, false
     | false, false, true, false, false, false, false, false, false
     | false, false, true, false, false, false, false, false, false
     | false, false, true, false, false, false, false, false, false
     | false, false, true, false, false, false, false, false, false
     | false, false, false, true, false, false, false, false, false
     | false, false, false, true, false, false, false, false, false
     | false, false, false, true, false, false, false, false, false
     | false, false, false, true, false, false, false, false, false
     | false, false, false, false, true, false, false, false, false
     | false, false, false, false, true, false, false, false, false
     | false, false, false, false, true, false, false, false, false
     | false, false, false, false, true, false, false, false, false
     | false, false, false, false, true, false, false, false, false
     | false, false, false, false, true, false, false, false, false
     | false, false, false, false, true, false, false, false, false
     | false, false, false, false, true, false, false, false, false
     | false, false, false, false, true, false, false, false, false
     | false, false, false, false, false, false, true, false, false
     | false, false, false, false, false, false, true, false, false
     | false, false, false, false, false, false, true, false, false
     | false, false, false, false, false, false, true, false, false
     | false, false, false, false, false, false, true, false, false
     | false, false, false, false, false, false, true, false, false
     | false, false, false, false, false, false, true, false, false
     | false, false, false, false, false, false, true, false, false
     | false, false, false, false, false, false, true, false, false
     | false, false, false, false, false, false, true, false, false
     | false, false, false, false, false, false, true, false, false
     | false, false, true, false, false, false, false, false, false
     | false, false, true, false, false, false, false, false, false
     | false, false, true, false, false, false, false, false, false
     | false, false, false, true, false, false, false, false, false
     | false, false, false, true, false, false, false, false, false
     | false, false, false, true, false, false, false, false, false
     | false, false, false, false, true, false, false, false, false
     | false, false, false, false, true, false, false, false, false
     | false, false, false, false, true, false, false, false, false
     | false, false, false, false, true, false, false, false, false
     | false, false, false, false, true, false, false, false, false
     | false, false, false, false, true, false, false, false, false
     | false, false, false, false, true, false, false, false, false
     | false, false, false, false, false, false, true, false, false
     | false, false, false, false, false, false, true, false, false
     | false, false, false, false, false, false, true, false, false
     | false, false, false, false, false, false, true, false, false
     | false, false, false, false, false, false, true, false, false
     | false, false, false, false, false, false, true, false, false
     | false, false, false, false, false, false, true, false, false
     | false, false, false, false, false, false, true, false, false
     | false, false, true, false, false, false, false, false, false
     | false, false, true, false, false, false, false, false, false
     | false, false, true, false, false, false, false, false, false
     | false, false, false, true, false, false, false, false, false
     | false, false, false, true, false, false, false, false, false
     | false, false, false, true, false, false, false, false, false
     | false, false, false, false, true, false, false, false, false
     | false, false, false, false, true, false, false, false, false
     | false, false, false, false, true, false, false, false, false
     | false, false, false, false, true, false, false, false, false
     | false, false, false, false, true, false, false, false, false
     | false, false, false, false, true, false, false, false, false
     | false, false, false, false, true, false, false, false, false
     | false, false, false, false, false, false, true, false, false
     | false, false, false, false, false, false, true, false, false
     | false, false, false, false, false, false, true, false, false
     | false, false, false, false, false, false, true, false, false
     | false, false, false, false, false, false, true, false, false
     | false, false, false, false, false, false, true, false, false
     | false, false, false, false, false, false, true, false, false
     | false, false, false, false, false, false, true, false, false
     | false, false, true, false, false, false, false, false, false
     | false, false, true, false, false, false, false, false, false
     | false, false, true, false, false, false, false, false, false
     | false, false, false, true, false, false, false, false, false
     | false, false, false, true, false, false, false, false, false
     | false, false, false, true, false, false, false, false, false
     | false, false, false, false, true, false, false, false, false
     | false, false, false, false, true, false, false, false, false
     | false, false, false, false, true, false, false, false, false
     | false, false, false, false, true, false, false, false, false
     | false, false, false, false, true, false, false, false, false
     | false, false, false, false, true, false, false, false, false
     | false, false, false, false, true, false, false, false, false
     | false, false, false, false, false, false, true, false, false
     | false, false, false, false, false, false, true, false, false
     | false, false, false, false, false, false, true, false, false
     | false, false, false, false, false, false, true, false, false
     | false, false, false, false, false, false, true, false, false
     | false, false, false, false, false, false, true, false, false
     | false, false, false, false, false, false, true, false, false
     | false, false, false, false, false, false, true, false, false
     | false, true, false, false, false, false, false, false, false
     | false, true, false, false, false, false, false, false, false
     | false, true, false, false, false, false, false, false, false
     | false, true, false, false, false, false, false, false, false
     | false, false, false, false, false, false, false, false, true
     | false, false, false, false, false, false, false, false, true
     | false, false, false, false, false, false, false, false, true
     | false, false, false, false, false, false, false, false, true
     | false, true, false, false, false, false, false, false, false
     | false, true, false, false, false, false, false, false, false
     | false, true, false, false, false, false, false, false, false
     | false, false, false, false, false, false, false, false, true
     | false, false, false, false, false, false, false, false, true
     | false, false, false, false, false, false, false, false, true
     | false, true, false, false, false, false, false, false, false
     | false, true, false, false, false, false, false, false, false
     | false, true, false, false, false, false, false, false, false
     | false, false, false, false, false, false, false, false, true
     | false, false, false, false, false, false, false, false, true
     | false, false, false, false, false, false, false, false, true
     | false, true, false, false, false, false, false, false, false
     | false, true, false, false, false, false, false, false, false
     | false, true, false, false, false, false, false, false, false
     | false, false, false, false, false, false, false, false, true
     | false, false, false, false, false, false, false, false, true
     | false, false, false, false, false, false, false, false, true
     | false, true, false, false, false, false, false, false, false
     | false, true, false, false, false, false, false, false, false
     | false, true, false, false, false, false, false, false, false
     | false, false, false, false, false, false, false, false, true
     | false, false, false, false, false, false, false, false, true
     | false, false, false, false, false, false, false, false, true
     | false, true, false, false, false, false, false, false, false
     | false, true, false, false, false, false, false, false, false
     | false, true, false, false, false, false, false, false, false
     | false, true, false, false, false, false, false, false, false
     | false, true, false, false, false, false, false, false, false
     | false, false, false, false, false, false, false, false, true
     | false, false, false, false, false, false, false, false, true
     | false, false, false, false, false, false, false, false, true
     | false, false, false, false, false, false, false, false, true
     | false, false, false, false, false, false, false, false, true
     | false, true, false, false, false, false, false, false, false
     | false, true, false, false, false, false, false, false, false
     | false, true, false, false, false, false, false, false, false
     | false, true, false, false, false, false, false, false, false
     | false, true, false, false, false, false, false, false, false
     | false, false, false, false, false, false, false, false, true
     | false, false, false, false, false, false, false, false, true
     | false, false, false, false, false, false, false, false, true
     | false, false, false, false, false, false, false, false, true
     | false, false, false, false, false, false, false, false, true
     | false, true, false, false, false, false, false, false, false
     | false, true, false, false, false, false, false, false, false
     | false, true, false, false, false, false, false, false, false
     | false, true, false, false, false, false, false, false, false
     | false, true, false, false, false, false, false, false, false
     | false, true, false, false, false, false, false, false, false
     | false, false, false, false, false, false, false, false, true
     | false, false, false, false, false, false, false, false, true
     | false, false, false, false, false, false, false, false, true
     | false, false, false, false, false, false, false, false, true
     | false, false, false, false, false, false, false, false, true
     | false, false, false, false, false, false, false, false, true
     | false, true, false, false, false, false, false, false, false
     | false, true, false, false, false, false, false, false, false
     | false, true, false, false, false, false, false, false, false
     | false, true, false, false, false, false, false, false, false
     | false, false, false, false, false, false, false, true, false
     | false, false, false, false, false, false, false, true, false
     | false, false, false, false, false, false, false, true, false
     | false, false, false, false, false, false, false, false, true
     | false, false, false, false, false, false, false, false, true
     | false, false, false, false, false, false, false, false, true
     | false, false, false, false, false, false, false, false, true
     | false, false, false, false, false, false, false, true, false
     | false, false, false, false, false, false, false, true, false
     | false, true, false, false, false, false, false, false, false
     | false, true, false, false, false, false, false, false, false
     | false, true, false, false, false, false, false, false, false
     | false, true, false, false, false, false, false, false, false
     | false, false, false, false, false, false, false, true, false
     | false, false, false, false, false, false, false, true, false
     | false, false, false, false, false, false, false, true, false
     | false, false, false, false, false, false, false, false, true
     | false, false, false, false, false, false, false, false, true
     | false, false, false, false, false, false, false, false, true
     | false, false, false, false, false, false, false, false, true
     | false, false, false, false, false, false, false, true, false
     | false, false, false, false, false, false, false, true, false
     | false, true, false, false, false, false, false, false, false
     | false, true, false, false, false, false, false, false, false
     | false, true, false, false, false, false, false, false, false
     | false, false, false, false, false, false, false, true, false
     | false, false, false, false, false, false, false, true, false
     | false, false, false, false, false, false, false, false, true
     | false, false, false, false, false, false, false, false, true
     | false, false, false, false, false, false, false, false, true
     | false, false, false, false, false, false, false, true, false
     | false, false, false, false, false, false, false, true, false
     | false, false, false, false, false, false, false, true, false
     | false, true, false, false, false, false, false, false, false
     | false, true, false, false, false, false, false, false, false
     | false, true, false, false, false, false, false, false, false
     | false, true, false, false, false, false, false, false, false
     | false, false, false, false, false, false, false, true, false
     | false, false, false, false, false, false, false, true, false
     | false, false, false, false, false, false, false, true, false
     | false, false, false, false, false, false, false, false, true
     | false, false, false, false, false, false, false, false, true
     | false, false, false, false, false, false, false, false, true
     | false, false, false, false, false, false, false, false, true
     | false, false, false, false, false, false, false, true, false
     | false, false, false, false, false, false, false, true, false
     | false, true, false, false, false, false, false, false, false
     | false, true, false, false, false, false, false, false, false
     | false, true, false, false, false, false, false, false, false
     | false, true, false, false, false, false, false, false, false
     | false, true, false, false, false, false, false, false, false
     | false, false, false, false, false, false, false, true, false
     | false, false, false, false, false, false, false, true, false
     | false, false, false, false, false, false, false, true, false
     | false, false, false, false, false, false, false, true, false
     | false, false, false, false, false, false, false, false, true
     | false, false, false, false, false, false, false, false, true
     | false, false, false, false, false, false, false, false, true
     | false, false, false, false, false, false, false, false, true
     | false, false, false, false, false, false, false, false, true
     | false, false, false, false, false, false, false, true, false
     | false, false, false, false, false, false, false, true, false
     | false, true, false, false, false, false, false, false, false
     | false, true, false, false, false, false, false, false, false
     | false, true, false, false, false, false, false, false, false
     | false, true, false, false, false, false, false, false, false
     | false, false, false, false, false, false, false, true, false
     | false, false, false, false, false, false, false, true, false
     | false, false, false, false, false, false, false, true, false
     | false, false, false, false, false, false, false, false, true
     | false, false, false, false, false, false, false, false, true
     | false, false, false, false, false, false, false, false, true
     | false, false, false, false, false, false, false, false, true
     | false, false, false, false, false, false, false, true, false
     | false, false, false, false, false, false, false, true, false
     | false, true, false, false, false, false, false, false, false
     | false, true, false, false, false, false, false, false, false
     | false, true, false, false, false, false, false, false, false
     | false, true, false, false, false, false, false, false, false
     | false, false, false, false, false, false, false, true, false
     | false, false, false, false, false, false, false, true, false
     | false, false, false, false, false, false, false, true, false
     | false, false, false, false, false, false, false, false, true
     | false, false, false, false, false, false, false, false, true
     | false, false, false, false, false, false, false, false, true
     | false, false, false, false, false, false, false, false, true
     | false, false, false, false, false, false, false, true, false
     | false, false, false, false, false, false, false, true, false
     | false, true, false, false, false, false, false, false, false
     | false, true, false, false, false, false, false, false, false
     | false, true, false, false, false, false, false, false, false
     | false, true, false, false, false, false, false, false, false
     | false, false, false, false, false, false, false, true, false
     | false, false, false, false, false, false, false, true, false
     | false, false, false, false, false, false, false, true, false
     | false, false, false, false, false, false, false, false, true
     | false, false, false, false, false, false, false, false, true
     | false, false, false, false, false, false, false, false, true
     | false, false, false, false, false, false, false, false, true |]);
pe_owner2 = [1, 1, 1, 1, 1, 1, 1, 1, 1, 1, 1, 1, 1, 1, 1, 1, 1, 1, 1, 1, 1, 2, 2, 2, 2, 2, 2, 2, 2, 2, 2, 2, 2, 2, 2, 2, 2, 2, 2, 2, 2, 2, 3, 3, 3, 3, 3, 3, 3, 3, 3, 3, 3, 3, 3, 3, 3, 3, 3, 3, 3, 3, 3, 3, 3, 3, 3, 3, 3, 3, 3, 3, 3, 3, 3, 3, 3, 4, 4, 4, 4, 4, 4, 4, 4, 4, 4, 4, 4, 4, 4, 4, 4, 4, 4, 4, 4, 4, 4, 4, 4, 4, 4, 4, 4, 4, 4, 4, 4, 4, 4, 4, 4, 4, 4, 4, 4, 4, 4, 5, 5, 5, 5, 5, 5, 5, 5, 5, 5, 5, 5, 5, 5, 5, 5, 5, 5, 5, 5, 5, 5, 5, 5, 5, 5, 5, 5, 6, 6, 6, 6, 6, 6, 6, 6, 6, 6, 6, 6, 6, 6, 6, 6, 6, 6, 6, 6, 6, 7, 7, 7, 7, 7, 7, 7, 7, 7, 7, 7, 7, 7, 7, 7, 7, 7, 7, 7, 7, 7, 8, 8, 8, 8, 8, 8, 8, 8, 8, 8, 8, 8, 8, 8, 8, 8, 8, 8, 8, 8, 8, 9, 9, 9, 9, 9, 9, 9, 9, 10, 10, 10, 10, 10, 10, 11, 11, 11, 11, 11, 11, 12, 12, 12, 12, 12, 12, 13, 13, 13, 13, 13, 13, 14, 14, 14, 14, 14, 14, 14, 14, 14, 14, 15, 15, 15, 15, 15, 15, 15, 15, 15, 15, 16, 16, 16, 16, 16, 16, 16, 16, 16, 16, 16, 16, 17, 17, 17, 17, 17, 17, 17, 17, 17, 17, 17, 18, 18, 19, 19, 19, 19, 19, 19, 19, 19, 19, 19, 19, 20, 20, 21, 21, 21, 21, 21, 21, 21, 21, 22, 22, 22, 23, 23, 23, 23, 23, 23, 23, 23, 23, 23, 23, 24, 24, 25, 25, 25, 25, 25, 25, 25, 25, 25, 25, 25, 25, 25, 25, 26, 26, 27, 27, 27, 27, 27, 27, 27, 27, 27, 27, 27, 28, 28, 29, 29, 29, 29, 29, 29, 29, 29, 29, 29, 29, 30, 30, 31, 31, 31, 31, 31, 31, 31, 31, 31, 31, 31];
pe_guard2 = array2d(1..377, 1..9,
  [| true, true, true, true, true, true, true, true, true
     | true, true, true, true, true, true, true, true, true
     | true, true, true, true, true, true, true, true, true
     | true, true, true, true, true, true, true, true, true
     | true, true, true, true, true, true, true, true, true
     | true, true, true, true, true, true, true, true, true
     | true, true, true, true, true, true, true, true, true
     | true, true, true, true, true, true, true, true, true
     | true, true, true, true, true, true, true, true, true
     | true, true, true, true, true, true, true, true, true
     | true, true, true, true, true, true, true, true, true
     | true, true, true, true, true, true, true, true, true
     | true, true, true, true, true, true, true, true, true
     | true, true, true, true, true, true, true, true, true
     | true, true, true, true, true, true, true, true, true
     | true, true, true, true, true, true, true, true, true
     | true, true, true, true, true, true, true, true, true
     | true, true, true, true, true, true, true, true, true
     | true, true, true, true, true, true, true, true, true
     | true, true, true, true, true, true, true, true, true
     | true, true, true, true, true, true, true, true, true
     | true, true, true, true, true, true, true, true, true
     | true, true, true, true, true, true, true, true, true
     | true, true, true, true, true, true, true, true, true
     | true, true, true, true, true, true, true, true, true
     | true, true, true, true, true, true, true, true, true
     | true, true, true, true, true, true, true, true, true
     | true, true, true, true, true, true, true, true, true
     | true, true, true, true, true, true, true, true, true
     | true, true, true, true, true, true, true, true, true
     | true, true, true, true, true, true, true, true, true
     | true, true, true, true, true, true, true, true, true
     | true, true, true, true, true, true, true, true, true
     | true, true, true, true, true, true, true, true, true
     | true, true, true, true, true, true, true, true, true
     | true, true, true, true, true, true, true, true, true
     | true, true, true, true, true, true, true, true, true
     | true, true, true, true, true, true, true, true, true
     | true, true, true, true, true, true, true, true, true
     | true, true, true, true, true, true, true, true, true
     | true, true, true, true, true, true, true, true, true
     | true, true, true, true, true, true, true, true, true
     | true, true, true, true, true, true, true, true, true
     | true, true, true, true, true, true, true, true, true
     | true, true, true, true, true, true, true, true, true
     | true, true, true, true, true, true, true, true, true
     | true, true, true, true, true, true, true, true, true
     | true, true, true, true, true, true, true, true, true
     | true, true, true, true, true, true, true, true, true
     | true, true, true, true, true, true, true, true, true
     | true, true, true, true, true, true, true, true, true
     | true, true, true, true, true, true, true, true, true
     | true, true, true, true, true, true, true, true, true
     | true, true, true, true, true, true, true, true, true
     | true, true, true, true, true, true, true, true, true
     | true, true, true, true, true, true, true, true, true
     | true, true, true, true, true, true, true, true, true
     | true, true, true, true, true, true, true, true, true
     | true, true, true, true, true, true, true, true, true
     | true, true, true, true, true, true, true, true, true
     | true, true, true, true, true, true, true, true, true
     | true, true, true, true, true, true, true, true, true
     | true, true, true, true, true, true, true, true, true
     | true, true, true, true, true, true, true, true, true
     | true, true, true, true, true, true, true, true, true
     | true, true, true, true, true, true, true, true, true
     | true, true, true, true, true, true, true, true, true
     | true, true, true, true, true, true, true, true, true
     | true, true, true, true, true, true, true, true, true
     | true, true, true, true, true, true, true, true, true
     | true, true, true, true, true, true, true, true, true
     | true, true, true, true, true, true, true, true, true
     | true, true, true, true, true, true, true, true, true
     | true, true, true, true, true, true, true, true, true
     | true, true, true, true, true, true, true, true, true
     | true, true, true, true, true, true, true, true, true
     | true, true, true, true, true, true, true, true, true
     | true, true, true, true, true, true, true, true, true
     | true, true, true, true, true, true, true, true, true
     | true, true, true, true, true, true, true, true, true
     | true, true, true, true, true, true, true, true, true
     | true, true, true, true, true, true, true, true, true
     | true, true, true, true, true, true, true, true, true
     | true, true, true, true, true, true, true, true, true
     | true, true, true, true, true, true, true, true, true
     | true, true, true, true, true, true, true, true, true
     | true, true, true, true, true, true, true, true, true
     | true, true, true, true, true, true, true, true, true
     | true, true, true, true, true, true, true, true, true
     | true, true, true, true, true, true, true, true, true
     | true, true, true, true, true, true, true, true, true
     | true, true, true, true, true, true, true, true, true
     | true, true, true, true, true, true, true, true, true
     | true, true, true, true, true, true, true, true, true
     | true, true, true, true, true, true, true, true, true
     | true, true, true, true, true, true, true, true, true
     | true, true, true, true, true, true, true, true, true
     | true, true, true, true, true, true, true, true, true
     | true, true, true, true, true, true, true, true, true
     | true, true, true, true, true, true, true, true, true
     | true, true, true, true, true, true, true, true, true
     | true, true, true, true, true, true, true, true, true
     | true, true, true, true, true, true, true, true, true
     | true, true, true, true, true, true, true, true, true
     | true, true, true, true, true, true, true, true, true
     | true, true, true, true, true, true, true, true, true
     | true, true, true, true, true, true, true, true, true
     | true, true, true, true, true, true, true, true, true
     | true, true, true, true, true, true, true, true, true
     | true, true, true, true, true, true, true, true, true
     | true, true, true, true, true, true, true, true, true
     | true, true, true, true, true, true, true, true, true
     | true, true, true, true, true, true, true, true, true
     | true, true, true, true, true, true, true, true, true
     | true, true, true, true, true, true, true, true, true
     | true, true, true, true, true, true, true, true, true
     | true, true, true, true, true, true, true, true, true
     | true, true, true, true, true, true, true, true, true
     | true, true, true, true, true, true, true, true, true
     | true, true, true, true, true, true, true, true, true
     | true, true, true, true, true, true, true, true, true
     | true, true, true, true, true, true, true, true, true
     | true, true, true, true, true, true, true, true, true
     | true, true, true, true, true, true, true, true, true
     | true, true, true, true, true, true, true, true, true
     | true, true, true, true, true, true, true, true, true
     | true, true, true, true, true, true, true, true, true
     | true, true, true, true, true, true, true, true, true
     | true, true, true, true, true, true, true, true, true
     | true, true, true, true, true, true, true, true, true
     | true, true, true, true, true, true, true, true, true
     | true, true, true, true, true, true, true, true, true
     | true, true, true, true, true, true, true, true, true
     | true, true, true, true, true, true, true, true, true
     | true, true, true, true, true, true, true, true, true
     | true, true, true, true, true, true, true, true, true
     | true, true, true, true, true, true, true, true, true
     | true, true, true, true, true, true, true, true, true
     | true, true, true, true, true, true, true, true, true
     | true, true, true, true, true, true, true, true, true
     | true, true, true, true, true, true, true, true, true
     | true, true, true, true, true, true, true, true, true
     | true, true, true, true, true, true, true, true, true
     | true, true, true, true, true, true, true, true, true
     | true, true, true, true, true, true, true, true, true
     | true, true, true, true, true, true, true, true, true
     | true, true, true, true, true, true, true, true, true
     | true, true, true, true, true, true, true, true, true
     | true, true, true, true, true, true, true, true, true
     | true, true, true, true, true, true, true, true, true
     | true, true, true, true, true, true, true, true, true
     | true, true, true, true, true, true, true, true, true
     | true, true, true, true, true, true, true, true, true
     | true, true, true, true, true, true, true, true, true
     | true, true, true, true, true, true, true, true, true
     | true, true, true, true, true, true, true, true, true
     | true, true, true, true, true, true, true, true, true
     | true, true, true, true, true, true, true, true, true
     | true, true, true, true, true, true, true, true, true
     | true, true, true, true, true, true, true, true, true
     | true, true, true, true, true, true, true, true, true
     | true, true, true, true, true, true, true, true, true
     | true, true, true, true, true, true, true, true, true
     | true, true, true, true, true, true, true, true, true
     | true, true, true, true, true, true, true, true, true
     | true, true, true, true, true, true, true, true, true
     | true, true, true, true, true, true, true, true, true
     | true, true, true, true, true, true, true, true, true
     | true, true, true, true, true, true, true, true, true
     | true, true, true, true, true, true, true, true, true
     | true, true, true, true, true, true, true, true, true
     | true, true, true, true, true, true, true, true, true
     | true, true, true, true, true, true, true, true, true
     | true, true, true, true, true, true, true, true, true
     | true, true, true, true, true, true, true, true, true
     | true, true, true, true, true, true, true, true, true
     | true, true, true, true, true, true, true, true, true
     | true, true, true, true, true, true, true, true, true
     | true, true, true, true, true, true, true, true, true
     | true, true, true, true, true, true, true, true, true
     | true, true, true, true, true, true, true, true, true
     | true, true, true, true, true, true, true, true, true
     | true, true, true, true, true, true, true, true, true
     | true, true, true, true, true, true, true, true, true
     | true, true, true, true, true, true, true, true, true
     | true, true, true, true, true, true, true, true, true
     | true, true, true, true, true, true, true, true, true
     | true, true, true, true, true, true, true, true, true
     | true, true, true, true, true, true, true, true, true
     | true, true, true, true, true, true, true, true, true
     | true, true, true, true, true, true, true, true, true
     | true, true, true, true, true, true, true, true, true
     | true, true, true, true, true, true, true, true, true
     | true, true, true, true, true, true, true, true, true
     | true, true, true, true, true, true, true, true, true
     | true, true, true, true, true, true, true, true, true
     | true, true, true, true, true, true, true, true, true
     | true, true, true, true, true, true, true, true, true
     | true, true, true, true, true, true, true, true, true
     | true, true, true, true, true, true, true, true, true
     | true, true, true, true, true, true, true, true, true
     | true, true, true, true, true, true, true, true, true
     | true, true, true, true, true, true, true, true, true
     | true, true, true, true, true, true, true, true, true
     | true, true, true, true, true, true, true, true, true
     | true, true, true, true, true, true, true, true, true
     | true, true, true, true, true, true, true, true, true
     | true, true, true, true, true, true, true, true, true
     | true, true, true, true, true, true, true, true, true
     | true, true, true, true, true, true, true, true, true
     | true, true, true, true, true, true, true, true, true
     | true, true, true, true, true, true, true, true, true
     | true, true, true, true, true, true, true, true, true
     | true, true, true, true, true, true, true, true, true
     | true, true, true, true, true, true, true, true, true
     | true, true, true, true, true, true, true, true, true
     | true, true, true, true, true, true, true, true, true
     | true, true, true, true, true, true, true, true, true
     | true, true, true, true, true, true, true, true, true
     | true, true, true, true, true, true, true, true, true
     | true, true, true, true, true, true, true, true, true
     | true, true, true, true, true, true, true, true, true
     | true, true, true, true, true, true, true, true, true
     | true, true, true, true, true, true, true, true, true
     | true, true, true, true, true, true, true, true, true
     | true, true, true, true, true, true, true, true, true
     | true, true, true, true, true, true, true, true, true
     | true, true, true, true, true, true, true, true, true
     | true, true, true, true, true, true, true, true, true
     | true, true, true, true, true, true, true, true, true
     | true, true, true, true, true, true, true, true, true
     | true, true, true, true, true, true, true, true, true
     | true, true, true, true, true, true, true, true, true
     | true, true, true, true, true, true, true, true, true
     | true, true, true, true, true, true, true, true, true
     | true, true, true, true, true, true, true, true, true
     | true, true, true, true, true, true, true, true, true
     | true, true, true, true, true, true, true, true, true
     | true, true, true, true, true, true, true, true, true
     | true, true, true, true, true, true, true, true, true
     | true, true, true, true, true, true, true, true, true
     | true, true, true, true, true, true, true, true, true
     | true, true, true, true, true, true, true, true, true
     | true, true, true, true, true, true, true, true, true
     | true, true, true, true, true, true, true, true, true
     | true, true, true, true, true, true, true, true, true
     | true, true, true, true, true, true, true, true, true
     | true, true, true, true, true, true, true, true, true
     | true, true, true, true, true, true, true, true, true
     | true, true, true, true, true, true, true, true, true
     | true, true, true, true, true, true, true, true, true
     | true, true, true, true, true, true, true, true, true
     | true, true, true, true, true, true, true, true, true
     | true, true, true, true, true, true, true, true, true
     | true, true, true, true, true, true, true, true, true
     | true, true, true, true, true, true, true, true, true
     | true, true, true, true, true, true, true, true, true
     | true, true, true, true, true, true, true, true, true
     | true, true, true, true, true, true, true, true, true
     | true, true, true, true, true, true, true, true, true
     | true, true, true, true, true, true, true, true, true
     | true, true, true, true, true, true, true, true, true
     | true, true, true, true, true, true, true, true, true
     | true, true, true, true, true, true, true, true, true
     | true, true, true, true, true, true, true, true, true
     | true, true, true, true, true, true, true, true, true
     | true, true, true, true, true, true, true, true, true
     | true, true, true, true, true, true, true, true, true
     | true, true, true, true, true, true, true, true, true
     | true, true, true, true, true, true, true, true, true
     | true, true, true, true, true, true, true, true, true
     | true, true, true, true, true, true, true, true, true
     | true, true, true, true, true, true, true, true, true
     | true, true, true, true, true, true, true, true, true
     | true, true, true, true, true, true, true, true, true
     | true, true, true, true, true, true, true, true, true
     | true, true, true, true, true, true, true, true, true
     | true, true, true, true, true, true, true, true, true
     | true, true, true, true, true, true, true, true, true
     | true, true, true, true, true, true, true, true, true
     | true, true, true, true, true, true, true, true, true
     | true, true, true, true, true, true, true, true, true
     | true, true, true, true, true, true, true, true, true
     | true, true, true, true, true, true, true, true, true
     | true, true, true, true, true, true, true, true, true
     | true, true, true, true, true, true, true, true, true
     | true, true, true, true, true, true, true, true, true
     | true, true, true, true, true, true, true, true, true
     | true, true, true, true, true, true, true, true, true
     | true, true, true, true, true, true, true, true, true
     | true, true, true, true, true, true, true, true, true
     | true, true, true, true, true, true, true, true, true
     | true, true, true, true, true, true, true, true, true
     | true, true, true, true, true, true, true, true, true
     | true, true, true, true, true, true, true, true, true
     | true, true, true, true, true, true, true, true, true
     | true, true, true, true, true, true, true, true, true
     | true, true, true, true, true, true, true, true, true
     | true, true, true, true, true, true, true, true, true
     | true, true, true, true, true, true, true, true, true
     | true, true, true, true, true, true, true, true, true
     | true, true, true, true, true, true, true, true, true
     | true, true, true, true, true, true, true, true, true
     | true, true, true, true, true, true, true, true, true
     | true, true, true, true, true, true, true, true, true
     | true, true, true, true, true, true, true, true, true
     | true, true, true, true, true, true, true, true, true
     | true, true, true, true, true, true, true, true, true
     | true, true, true, true, true, true, true, true, true
     | true, true, true, true, true, true, true, true, true
     | true, true, true, true, true, true, true, true, true
     | true, true, true, true, true, true, true, true, true
     | true, true, true, true, true, true, true, true, true
     | true, true, true, true, true, true, true, true, true
     | true, true, true, true, true, true, true, true, true
     | true, true, true, true, true, true, true, true, true
     | true, true, true, true, true, true, true, true, true
     | true, true, true, true, true, true, true, true, true
     | true, true, true, true, true, true, true, true, true
     | true, true, true, true, true, true, true, true, true
     | true, true, true, true, true, true, true, true, true
     | true, true, true, true, true, true, true, true, true
     | true, true, true, true, true, true, true, true, true
     | true, true, true, true, true, true, true, true, true
     | true, true, true, true, true, true, true, true, true
     | true, true, true, true, true, true, true, true, true
     | true, true, true, true, true, true, true, true, true
     | true, true, true, true, true, true, true, true, true
     | true, true, true, true, true, true, true, true, true
     | true, true, true, true, true, true, true, true, true
     | true, true, true, true, true, true, true, true, true
     | true, true, true, true, true, true, true, true, true
     | true, true, true, true, true, true, true, true, true
     | true, true, true, true, true, true, true, true, true
     | true, true, true, true, true, true, true, true, true
     | true, true, true, true, true, true, true, true, true
     | true, true, true, true, true, true, true, true, true
     | true, true, true, true, true, true, true, true, true
     | true, true, true, true, true, true, true, true, true
     | true, true, true, true, true, true, true, true, true
     | true, true, true, true, true, true, true, true, true
     | true, true, true, true, true, true, true, true, true
     | true, true, true, true, true, true, true, true, true
     | true, true, true, true, true, true, true, true, true
     | true, true, true, true, true, true, true, true, true
     | true, true, true, true, true, true, true, true, true
     | true, true, true, true, true, true, true, true, true
     | true, true, true, true, true, true, true, true, true
     | true, true, true, true, true, true, true, true, true
     | true, true, true, true, true, true, true, true, true
     | true, true, true, true, true, true, true, true, true
     | true, true, true, true, true, true, true, true, true
     | true, true, true, true, true, true, true, true, true
     | true, true, true, true, true, true, true, true, true
     | true, true, true, true, true, true, true, true, true
     | true, true, true, true, true, true, true, true, true
     | true, true, true, true, true, true, true, true, true
     | true, true, true, true, true, true, true, true, true
     | true, true, true, true, true, true, true, true, true
     | true, true, true, true, true, true, true, true, true
     | true, true, true, true, true, true, true, true, true
     | true, true, true, true, true, true, true, true, true
     | true, true, true, true, true, true, true, true, true
     | true, true, true, true, true, true, true, true, true
     | true, true, true, true, true, true, true, true, true
     | true, true, true, true, true, true, true, true, true
     | true, true, true, true, true, true, true, true, true
     | true, true, true, true, true, true, true, true, true
     | true, true, true, true, true, true, true, true, true
     | true, true, true, true, true, true, true, true, true
     | true, true, true, true, true, true, true, true, true
     | true, true, true, true, true, true, true, true, true
     | true, true, true, true, true, true, true, true, true
     | true, true, true, true, true, true, true, true, true
     | true, true, true, true, true, true, true, true, true
     | true, true, true, true, true, true, true, true, true
     | true, true, true, true, true, true, true, true, true |]);
nPL = 103;
pl_u = [1, 1, 1, 33, 1, 35, 1, 2, 2, 2, 38, 2, 40, 2, 3, 3, 3, 43, 3, 45, 3, 4, 4, 4, 48, 4, 50, 4, 5, 5, 5, 53, 5, 55, 5, 6, 6, 6, 58, 6, 60, 6, 7, 7, 7, 63, 7, 65, 7, 8, 8, 8, 68, 8, 70, 8, 9, 9, 10, 10, 11, 11, 12, 12, 13, 13, 14, 14, 15, 15, 16, 16, 17, 17, 17, 18, 19, 19, 19, 20, 21, 21, 21, 22, 23, 23, 23, 24, 25, 25, 25, 26, 27, 27, 27, 28, 29, 29, 29, 30, 31, 31, 31];
pl_v = [32, 33, 33, 34, 32, 36, 35, 37, 38, 38, 39, 37, 41, 40, 42, 43, 43, 44, 42, 46, 45, 47, 48, 48, 49, 47, 51, 50, 52, 53, 53, 54, 52, 56, 55, 57, 58, 58, 59, 57, 61, 60, 62, 63, 63, 64, 62, 66, 65, 67, 68, 68, 69, 67, 71, 70, 72, 72, 73, 73, 74, 74, 75, 75, 76, 76, 77, 77, 78, 78, 79, 79, 80, 81, 80, 82, 83, 84, 83, 85, 86, 87, 86, 88, 89, 90, 89, 91, 92, 93, 92, 94, 95, 96, 95, 97, 98, 99, 98, 100, 101, 102, 101];
pl_rel = [3, 3, 3, 3, 3, 3, 3, 3, 3, 3, 3, 3, 3, 3, 3, 3, 3, 3, 3, 3, 3, 3, 3, 3, 3, 3, 3, 3, 3, 3, 3, 3, 3, 3, 3, 3, 3, 3, 3, 3, 3, 3, 3, 3, 3, 3, 3, 3, 3, 3, 3, 3, 3, 3, 3, 3, 2, 3, 2, 3, 2, 3, 2, 3, 2, 3, 2, 3, 2, 3, 2, 3, 2, 3, 3, 3, 2, 3, 3, 3, 2, 3, 3, 3, 2, 3, 3, 3, 2, 3, 3, 3, 2, 3, 3, 3, 2, 3, 3, 3, 2, 3, 3];
pl_owner = [1, 1, 1, 1, 1, 1, 1, 2, 2, 2, 2, 2, 2, 2, 3, 3, 3, 3, 3, 3, 3, 4, 4, 4, 4, 4, 4, 4, 5, 5, 5, 5, 5, 5, 5, 6, 6, 6, 6, 6, 6, 6, 7, 7, 7, 7, 7, 7, 7, 8, 8, 8, 8, 8, 8, 8, 9, 9, 10, 10, 11, 11, 12, 12, 13, 13, 14, 14, 15, 15, 16, 16, 17, 17, 17, 18, 19, 19, 19, 20, 21, 21, 21, 22, 23, 23, 23, 24, 25, 25, 25, 26, 27, 27, 27, 28, 29, 29, 29, 30, 31, 31, 31];
pl_guard = array2d(1..103, 1..9,
  [| false, false, true, false, false, false, false, false, false
     | false, false, false, true, false, false, false, false, false
     | false, false, false, false, true, false, false, false, false
     | false, false, false, false, true, false, false, false, false
     | false, false, false, false, false, false, true, false, false
     | false, false, false, false, false, false, true, false, false
     | false, false, false, false, false, false, true, false, false
     | false, false, true, false, false, false, false, false, false
     | false, false, false, true, false, false, false, false, false
     | false, false, false, false, true, false, false, false, false
     | false, false, false, false, true, false, false, false, false
     | false, false, false, false, false, false, true, false, false
     | false, false, false, false, false, false, true, false, false
     | false, false, false, false, false, false, true, false, false
     | false, false, true, false, false, false, false, false, false
     | false, false, false, true, false, false, false, false, false
     | false, false, false, false, true, false, false, false, false
     | false, false, false, false, true, false, false, false, false
     | false, false, false, false, false, false, true, false, false
     | false, false, false, false, false, false, true, false, false
     | false, false, false, false, false, false, true, false, false
     | false, false, true, false, false, false, false, false, false
     | false, false, false, true, false, false, false, false, false
     | false, false, false, false, true, false, false, false, false
     | false, false, false, false, true, false, false, false, false
     | false, false, false, false, false, false, true, false, false
     | false, false, false, false, false, false, true, false, false
     | false, false, false, false, false, false, true, false, false
     | false, false, true, false, false, false, false, false, false
     | false, false, false, true, false, false, false, false, false
     | false, false, false, false, true, false, false, false, false
     | false, false, false, false, true, false, false, false, false
     | false, false, false, false, false, false, true, false, false
     | false, false, false, false, false, false, true, false, false
     | false, false, false, false, false, false, true, false, false
     | false, false, true, false, false, false, false, false, false
     | false, false, false, true, false, false, false, false, false
     | false, false, false, false, true, false, false, false, false
     | false, false, false, false, true, false, false, false, false
     | false, false, false, false, false, false, true, false, false
     | false, false, false, false, false, false, true, false, false
     | false, false, false, false, false, false, true, false, false
     | false, false, true, false, false, false, false, false, false
     | false, false, false, true, false, false, false, false, false
     | false, false, false, false, true, false, false, false, false
     | false, false, false, false, true, false, false, false, false
     | false, false, false, false, false, false, true, false, false
     | false, false, false, false, false, false, true, false, false
     | false, false, false, false, false, false, true, false, false
     | false, false, true, false, false, false, false, false, false
     | false, false, false, true, false, false, false, false, false
     | false, false, false, false, true, false, false, false, false
     | false, false, false, false, true, false, false, false, false
     | false, false, false, false, false, false, true, false, false
     | false, false, false, false, false, false, true, false, false
     | false, false, false, false, false, false, true, false, false
     | false, true, false, false, false, false, false, false, false
     | false, false, false, false, false, false, false, false, true
     | false, true, false, false, false, false, false, false, false
     | false, false, false, false, false, false, false, false, true
     | false, true, false, false, false, false, false, false, false
     | false, false, false, false, false, false, false, false, true
     | false, true, false, false, false, false, false, false, false
     | false, false, false, false, false, false, false, false, true
     | false, true, false, false, false, false, false, false, false
     | false, false, false, false, false, false, false, false, true
     | false, true, false, false, false, false, false, false, false
     | false, false, false, false, false, false, false, false, true
     | false, true, false, false, false, false, false, false, false
     | false, false, false, false, false, false, false, false, true
     | false, true, false, false, false, false, false, false, false
     | false, false, false, false, false, false, false, false, true
     | false, true, false, false, false, false, false, false, false
     | false, false, false, false, false, false, false, true, false
     | false, false, false, false, false, false, false, false, true
     | false, false, false, false, false, false, false, true, false
     | false, true, false, false, false, false, false, false, false
     | false, false, false, false, false, false, false, true, false
     | false, false, false, false, false, false, false, false, true
     | false, false, false, false, false, false, false, true, false
     | false, true, false, false, false, false, false, false, false
     | false, false, false, false, false, false, false, true, false
     | false, false, false, false, false, false, false, false, true
     | false, false, false, false, false, false, false, true, false
     | false, true, false, false, false, false, false, false, false
     | false, false, false, false, false, false, false, true, false
     | false, false, false, false, false, false, false, false, true
     | false, false, false, false, false, false, false, true, false
     | false, true, false, false, false, false, false, false, false
     | false, false, false, false, false, false, false, true, false
     | false, false, false, false, false, false, false, false, true
     | false, false, false, false, false, false, false, true, false
     | false, true, false, false, false, false, false, false, false
     | false, false, false, false, false, false, false, true, false
     | false, false, false, false, false, false, false, false, true
     | false, false, false, false, false, false, false, true, false
     | false, true, false, false, false, false, false, false, false
     | false, false, false, false, false, false, false, true, false
     | false, false, false, false, false, false, false, false, true
     | false, false, false, false, false, false, false, true, false
     | false, true, false, false, false, false, false, false, false
     | false, false, false, false, false, false, false, true, false
     | false, false, false, false, false, false, false, false, true |]);

% ---- TDMA communication ----
nCh = 0;
ch_src = [1]; ch_dst = [1]; ch_msgsize = [0]; ch_app = [1];
ch_block = [1]; ch_send = [1]; ch_rec = [1]; ch_slots_needed = [1];
ch_direct_tok = [0];
ch_rounds = array2d(1..1, 0..8, [0, 0, 0, 0, 0, 0, 0, 0, 0]);
tdma_slots = 8;
tdma_cycle_len = 1;
data_per_slot = 32;
max_buf = 4;
ni_capacity = 100000;
nSep = 0;  sep_a = [1];  sep_b = [1];
comm_sil_mode = 0;
comm_actor = [false, false, false, false, false, false, false, false, false, false, false, false, false, false, false, false, false, false, false, false, false, false, false, false, false, false, false, false, false, false, false, false, false, false, false, false, false, false, false, false, false, false, false, false, false, false, false, false, false, false, false, false, false, false, false, false, false, false, false, false, false, false, false, false, false, false, false, false, false, false, false, false, false, false, false, false, false, false, false, false, false, false, false, false, false, false, false, false, false, false, false, false, false, false, false, false, false, false, false, false, false, false];
