% Generated by SafeDSE build_dzn.py -- do not edit by hand.
% applications : g
% platform     : synthetic_3type
% period mode  : global
% fault model  : random_hw
% cost profile : myklebust2015  [100, 113, 225, 518, 906]

% ---- applications ----
nApps = 1;
n = 73;
app = [1, 1, 1, 1, 1, 1, 1, 1, 1, 1, 1, 1, 1, 1, 1, 1, 1, 1, 1, 1, 1, 1, 1, 1, 1, 1, 1, 1, 1, 1, 1, 1, 1, 1, 1, 1, 1, 1, 1, 1, 1, 1, 1, 1, 1, 1, 1, 1, 1, 1, 1, 1, 1, 1, 1, 1, 1, 1, 1, 1, 1, 1, 1, 1, 1, 1, 1, 1, 1, 1, 1, 1, 1];
nParents = 73;
parent = [1, 2, 3, 4, 5, 6, 7, 8, 9, 10, 11, 12, 13, 14, 15, 16, 17, 18, 19, 20, 21, 22, 23, 24, 25, 26, 27, 28, 29, 30, 31, 32, 33, 34, 35, 36, 37, 38, 39, 40, 41, 42, 43, 44, 45, 46, 47, 48, 49, 50, 51, 52, 53, 54, 55, 56, 57, 58, 59, 60, 61, 62, 63, 64, 65, 66, 67, 68, 69, 70, 71, 72, 73];
copy_index = [0, 0, 0, 0, 0, 0, 0, 0, 0, 0, 0, 0, 0, 0, 0, 0, 0, 0, 0, 0, 0, 0, 0, 0, 0, 0, 0, 0, 0, 0, 0, 0, 0, 0, 0, 0, 0, 0, 0, 0, 0, 0, 0, 0, 0, 0, 0, 0, 0, 0, 0, 0, 0, 0, 0, 0, 0, 0, 0, 0, 0, 0, 0, 0, 0, 0, 0, 0, 0, 0, 0, 0, 0];
node_name = ["g.a0", "g.a1", "g.a2", "g.a3", "g.a4", "g.a5", "g.a6", "g.a7", "g.a8", "g.a9", "g.a10", "g.a11", "g.a12", "g.a13", "g.a14", "g.a15", "g.a16", "g.a17", "g.a18", "g.a19", "g.a20", "g.a21", "g.a0~0", "g.a0~1", "g.a0~2", "g.a0~3", "g.a0~4", "g.a1~0", "g.a1~1", "g.a1~2", "g.a1~3", "g.a1~4", "g.a2~0", "g.a2~1", "g.a2~2", "g.a2~3", "g.a2~4", "g.a3~0", "g.a3~1", "g.a3~2", "g.a3~3", "g.a3~4", "g.a4~0", "g.a4~1", "g.a4~2", "g.a4~3", "g.a4~4", "g.a5~0", "g.a5~1", "g.a5~2", "g.a5~3", "g.a5~4", "g.a6~0", "g.a7~0", "g.a8~0", "g.a9~0", "g.a10~0", "g.a11~0", "g.a12~0", "g.a12~1", "g.a13~0", "g.a14~0", "g.a14~1", "g.a15~0", "g.a16~0", "g.a16~1", "g.a17~0", "g.a18~0", "g.a18~1", "g.a19~0", "g.a20~0", "g.a20~1", "g.a21~0"];
parent_name = ["g.a0", "g.a1", "g.a2", "g.a3", "g.a4", "g.a5", "g.a6", "g.a7", "g.a8", "g.a9", "g.a10", "g.a11", "g.a12", "g.a13", "g.a14", "g.a15", "g.a16", "g.a17", "g.a18", "g.a19", "g.a20", "g.a21", "g.a0~0", "g.a0~1", "g.a0~2", "g.a0~3", "g.a0~4", "g.a1~0", "g.a1~1", "g.a1~2", "g.a1~3", "g.a1~4", "g.a2~0", "g.a2~1", "g.a2~2", "g.a2~3", "g.a2~4", "g.a3~0", "g.a3~1", "g.a3~2", "g.a3~3", "g.a3~4", "g.a4~0", "g.a4~1", "g.a4~2", "g.a4~3", "g.a4~4", "g.a5~0", "g.a5~1", "g.a5~2", "g.a5~3", "g.a5~4", "g.a6~0", "g.a7~0", "g.a8~0", "g.a9~0", "g.a10~0", "g.a11~0", "g.a12~0", "g.a12~1", "g.a13~0", "g.a14~0", "g.a14~1", "g.a15~0", "g.a16~0", "g.a16~1", "g.a17~0", "g.a18~0", "g.a18~1", "g.a19~0", "g.a20~0", "g.a20~1", "g.a21~0"];
tok = array2d(1..73, 1..73,
  [| 1, -1, 0, -1, -1, -1, -1, 1, -1, -1, -1, -1, -1, -1, -1, -1, -1, 1, -1, -1, -1, -1, 0, 0, 0, -1, -1, -1, -1, -1, -1, -1, 0, 0, 0, 0, 0, -1, -1, -1, -1, -1, -1, -1, -1, -1, -1, -1, -1, -1, -1, -1, -1, 1, -1, -1, -1, -1, -1, -1, -1, -1, -1, -1, -1, -1, 1, -1, -1, -1, -1, -1, -1
       | 1, 1, -1, -1, -1, -1, -1, -1, -1, -1, -1, -1, -1, -1, -1, -1, -1, -1, -1, -1, -1, -1, 1, 1, 1, 1, 1, 0, 0, 0, -1, -1, -1, -1, -1, -1, -1, -1, -1, -1, -1, -1, -1, -1, -1, -1, -1, -1, -1, -1, -1, -1, -1, -1, -1, -1, -1, -1, -1, -1, -1, -1, -1, -1, -1, -1, -1, -1, -1, -1, -1, -1, -1
       | -1, -1, 1, -1, 1, -1, 2, -1, -1, -1, -1, -1, -1, -1, -1, -1, -1, -1, -1, -1, -1, -1, -1, -1, -1, -1, -1, -1, -1, -1, -1, -1, 0, 0, 0, -1, -1, -1, -1, -1, -1, -1, 1, 1, 1, 1, 1, -1, -1, -1, -1, -1, 2, -1, -1, -1, -1, -1, -1, -1, -1, -1, -1, -1, -1, -1, -1, -1, -1, -1, -1, -1, -1
       | -1, 0, -1, 1, -1, -1, -1, -1, -1, -1, -1, -1, -1, -1, -1, -1, -1, -1, -1, -1, -1, -1, -1, -1, -1, -1, -1, 0, 0, 0, 0, 0, -1, -1, -1, -1, -1, 0, 0, 0, -1, -1, -1, -1, -1, -1, -1, -1, -1, -1, -1, -1, -1, -1, -1, -1, -1, -1, -1, -1, -1, -1, -1, -1, -1, -1, -1, -1, -1, -1, -1, -1, -1
       | -1, -1, -1, -1, 1, 1, -1, -1, 1, -1, -1, 0, -1, -1, -1, -1, -1, -1, -1, -1, -1, -1, -1, -1, -1, -1, -1, -1, -1, -1, -1, -1, -1, -1, -1, -1, -1, -1, -1, -1, -1, -1, 0, 0, 0, -1, -1, 1, 1, 1, 1, 1, -1, -1, 1, -1, -1, 0, -1, -1, -1, -1, -1, -1, -1, -1, -1, -1, -1, -1, -1, -1, -1
       | 0, -1, -1, -1, -1, 1, -1, -1, -1, -1, -1, -1, -1, -1, -1, -1, 0, -1, -1, -1, -1, -1, 0, 0, 0, 0, 0, -1, -1, -1, -1, -1, -1, -1, -1, -1, -1, -1, -1, -1, -1, -1, -1, -1, -1, -1, -1, 0, 0, 0, -1, -1, -1, -1, -1, -1, -1, -1, -1, -1, -1, -1, -1, -1, 0, 0, -1, -1, -1, -1, -1, -1, -1
       | -1, -1, -1, -1, -1, -1, 1, -1, -1, -1, -1, -1, -1, -1, 1, -1, -1, -1, -1, -1, -1, -1, -1, -1, -1, -1, -1, -1, -1, -1, -1, -1, -1, -1, -1, -1, -1, -1, -1, -1, -1, -1, -1, -1, -1, -1, -1, -1, -1, -1, -1, -1, 0, -1, -1, -1, -1, -1, -1, -1, -1, 1, 1, -1, -1, -1, -1, -1, -1, -1, -1, -1, -1
       | -1, -1, -1, -1, -1, 0, -1, 1, -1, -1, -1, -1, -1, -1, -1, -1, -1, -1, -1, -1, -1, -1, -1, -1, -1, -1, -1, -1, -1, -1, -1, -1, -1, -1, -1, -1, -1, -1, -1, -1, -1, -1, -1, -1, -1, -1, -1, 0, 0, 0, 0, 0, -1, 0, -1, -1, -1, -1, -1, -1, -1, -1, -1, -1, -1, -1, -1, -1, -1, -1, -1, -1, -1
       | -1, -1, -1, -1, -1, -1, -1, -1, 1, -1, 0, -1, -1, 0, -1, -1, -1, -1, -1, -1, 1, -1, -1, -1, -1, -1, -1, -1, -1, -1, -1, -1, -1, -1, -1, -1, -1, -1, -1, -1, -1, -1, -1, -1, -1, -1, -1, -1, -1, -1, -1, -1, -1, -1, 0, -1, 0, -1, -1, -1, 0, -1, -1, -1, -1, -1, -1, -1, -1, -1, 1, 1, -1
       | -1, -1, -1, -1, -1, 1, -1, -1, -1, 1, -1, -1, -1, -1, -1, -1, -1, -1, -1, -1, -1, -1, -1, -1, -1, -1, -1, -1, -1, -1, -1, -1, -1, -1, -1, -1, -1, -1, -1, -1, -1, -1, -1, -1, -1, -1, -1, 1, 1, 1, 1, 1, -1, -1, -1, 0, -1, -1, -1, -1, -1, -1, -1, -1, -1, -1, -1, -1, -1, -1, -1, -1, -1
       | -1, -1, 0, -1, -1, -1, -1, -1, -1, -1, 1, -1, -1, -1, -1, -1, -1, -1, -1, -1, 2, -1, -1, -1, -1, -1, -1, -1, -1, -1, -1, -1, 0, 0, 0, 0, 0, -1, -1, -1, -1, -1, -1, -1, -1, -1, -1, -1, -1, -1, -1, -1, -1, -1, -1, -1, 0, -1, -1, -1, -1, -1, -1, -1, -1, -1, -1, -1, -1, -1, 2, 2, -1
       | -1, -1, -1, -1, -1, -1, -1, -1, -1, -1, -1, 1, -1, -1, -1, -1, 1, -1, -1, 1, -1, -1, -1, -1, -1, -1, -1, -1, -1, -1, -1, -1, -1, -1, -1, -1, -1, -1, -1, -1, -1, -1, -1, -1, -1, -1, -1, -1, -1, -1, -1, -1, -1, -1, -1, -1, -1, 0, -1, -1, -1, -1, -1, -1, 1, 1, -1, -1, -1, 1, -1, -1, -1
       | -1, -1, -1, -1, -1, -1, 0, -1, -1, -1, -1, -1, 1, 0, -1, -1, -1, -1, -1, -1, -1, -1, -1, -1, -1, -1, -1, -1, -1, -1, -1, -1, -1, -1, -1, -1, -1, -1, -1, -1, -1, -1, -1, -1, -1, -1, -1, -1, -1, -1, -1, -1, 0, -1, -1, -1, -1, -1, 0, -1, 0, -1, -1, -1, -1, -1, -1, -1, -1, -1, -1, -1, -1
       | -1, -1, -1, 0, -1, -1, -1, -1, -1, -1, -1, -1, -1, 1, 1, -1, -1, -1, -1, -1, -1, -1, -1, -1, -1, -1, -1, -1, -1, -1, -1, -1, -1, -1, -1, -1, -1, 0, 0, 0, 0, 0, -1, -1, -1, -1, -1, -1, -1, -1, -1, -1, -1, -1, -1, -1, -1, -1, -1, -1, -1, 1, 1, -1, -1, -1, -1, -1, -1, -1, -1, -1, -1
       | -1, -1, -1, -1, -1, -1, -1, -1, -1, -1, -1, -1, -1, -1, 1, -1, -1, -1, 0, -1, -1, -1, -1, -1, -1, -1, -1, -1, -1, -1, -1, -1, -1, -1, -1, -1, -1, -1, -1, -1, -1, -1, -1, -1, -1, -1, -1, -1, -1, -1, -1, -1, -1, -1, -1, -1, -1, -1, -1, -1, -1, 0, -1, -1, -1, -1, -1, 0, 0, -1, -1, -1, -1
       | -1, -1, -1, -1, -1, -1, -1, 0, -1, -1, -1, -1, -1, -1, -1, 1, -1, -1, -1, -1, -1, -1, -1, -1, -1, -1, -1, -1, -1, -1, -1, -1, -1, -1, -1, -1, -1, -1, -1, -1, -1, -1, -1, -1, -1, -1, -1, -1, -1, -1, -1, -1, -1, 0, -1, -1, -1, -1, -1, -1, -1, -1, -1, -1, -1, -1, -1, -1, -1, -1, -1, -1, -1
       | -1, -1, -1, -1, -1, -1, -1, -1, -1, -1, -1, -1, -1, -1, -1, -1, 1, -1, -1, -1, -1, 1, -1, -1, -1, -1, -1, -1, -1, -1, -1, -1, -1, -1, -1, -1, -1, -1, -1, -1, -1, -1, -1, -1, -1, -1, -1, -1, -1, -1, -1, -1, -1, -1, -1, -1, -1, -1, -1, -1, -1, -1, -1, -1, 0, -1, -1, -1, -1, -1, -1, -1, 1
       | -1, -1, -1, -1, -1, -1, -1, -1, 0, -1, -1, -1, -1, -1, -1, -1, -1, 1, -1, -1, -1, -1, -1, -1, -1, -1, -1, -1, -1, -1, -1, -1, -1, -1, -1, -1, -1, -1, -1, -1, -1, -1, -1, -1, -1, -1, -1, -1, -1, -1, -1, -1, -1, -1, 0, -1, -1, -1, -1, -1, -1, -1, -1, -1, -1, -1, -1, -1, -1, -1, -1, -1, -1
       | -1, -1, -1, -1, -1, -1, -1, -1, -1, -1, -1, -1, 0, -1, -1, -1, -1, 0, 1, -1, 0, -1, -1, -1, -1, -1, -1, -1, -1, -1, -1, -1, -1, -1, -1, -1, -1, -1, -1, -1, -1, -1, -1, -1, -1, -1, -1, -1, -1, -1, -1, -1, -1, -1, -1, -1, -1, -1, 0, 0, -1, -1, -1, -1, -1, -1, 0, 0, -1, -1, 0, 0, -1
       | -1, -1, -1, -1, -1, -1, -1, -1, -1, -1, -1, -1, -1, -1, -1, -1, 1, -1, -1, 1, -1, -1, -1, -1, -1, -1, -1, -1, -1, -1, -1, -1, -1, -1, -1, -1, -1, -1, -1, -1, -1, -1, -1, -1, -1, -1, -1, -1, -1, -1, -1, -1, -1, -1, -1, -1, -1, -1, -1, -1, -1, -1, -1, -1, 1, 1, -1, -1, -1, -1, -1, -1, -1
       | -1, -1, -1, -1, -1, -1, -1, -1, -1, -1, -1, -1, -1, 0, -1, 0, -1, -1, -1, -1, 1, -1, -1, -1, -1, -1, -1, -1, -1, -1, -1, -1, -1, -1, -1, -1, -1, -1, -1, -1, -1, -1, -1, -1, -1, -1, -1, -1, -1, -1, -1, -1, -1, -1, -1, -1, -1, -1, -1, -1, 0, -1, -1, 0, -1, -1, -1, -1, -1, -1, 0, -1, -1
       | -1, -1, -1, -1, -1, -1, -1, -1, -1, 0, -1, -1, -1, -1, -1, -1, -1, 1, -1, -1, -1, 1, -1, -1, -1, -1, -1, -1, -1, -1, -1, -1, -1, -1, -1, -1, -1, -1, -1, -1, -1, -1, -1, -1, -1, -1, -1, -1, -1, -1, -1, -1, -1, -1, -1, 0, -1, -1, -1, -1, -1, -1, -1, -1, -1, -1, 1, -1, -1, -1, -1, -1, -1
       | 1, -1, -1, -1, -1, -1, -1, -1, -1, -1, -1, -1, -1, -1, -1, -1, -1, -1, -1, -1, -1, -1, 1, -1, -1, -1, -1, -1, -1, -1, -1, -1, -1, -1, -1, -1, -1, -1, -1, -1, -1, -1, -1, -1, -1, -1, -1, -1, -1, -1, -1, -1, -1, -1, -1, -1, -1, -1, -1, -1, -1, -1, -1, -1, -1, -1, -1, -1, -1, -1, -1, -1, -1
       | 1, -1, -1, -1, -1, -1, -1, -1, -1, -1, -1, -1, -1, -1, -1, -1, -1, -1, -1, -1, -1, -1, -1, 1, 1, -1, -1, -1, -1, -1, -1, -1, -1, -1, -1, -1, -1, -1, -1, -1, -1, -1, -1, -1, -1, -1, -1, -1, -1, -1, -1, -1, -1, -1, -1, -1, -1, -1, -1, -1, -1, -1, -1, -1, -1, -1, -1, -1, -1, -1, -1, -1, -1
       | -1, -1, -1, -1, -1, -1, -1, -1, -1, -1, -1, -1, -1, -1, -1, -1, -1, -1, -1, -1, -1, -1, -1, 1, 1, -1, -1, -1, -1, -1, -1, -1, -1, -1, -1, -1, -1, -1, -1, -1, -1, -1, -1, -1, -1, -1, -1, -1, -1, -1, -1, -1, -1, -1, -1, -1, -1, -1, -1, -1, -1, -1, -1, -1, -1, -1, -1, -1, -1, -1, -1, -1, -1
       | 1, -1, -1, -1, -1, -1, -1, -1, -1, -1, -1, -1, -1, -1, -1, -1, -1, -1, -1, -1, -1, -1, -1, -1, -1, 1, 0, -1, -1, -1, -1, -1, -1, -1, -1, -1, -1, -1, -1, -1, -1, -1, -1, -1, -1, -1, -1, -1, -1, -1, -1, -1, -1, -1, -1, -1, -1, -1, -1, -1, -1, -1, -1, -1, -1, -1, -1, -1, -1, -1, -1, -1, -1
       | -1, -1, -1, -1, -1, -1, -1, -1, -1, -1, -1, -1, -1, -1, -1, -1, -1, -1, -1, -1, -1, -1, -1, -1, -1, 1, 1, -1, -1, -1, -1, -1, -1, -1, -1, -1, -1, -1, -1, -1, -1, -1, -1, -1, -1, -1, -1, -1, -1, -1, -1, -1, -1, -1, -1, -1, -1, -1, -1, -1, -1, -1, -1, -1, -1, -1, -1, -1, -1, -1, -1, -1, -1
       | -1, 1, -1, -1, -1, -1, -1, -1, -1, -1, -1, -1, -1, -1, -1, -1, -1, -1, -1, -1, -1, -1, -1, -1, -1, -1, -1, 1, -1, -1, -1, -1, -1, -1, -1, -1, -1, -1, -1, -1, -1, -1, -1, -1, -1, -1, -1, -1, -1, -1, -1, -1, -1, -1, -1, -1, -1, -1, -1, -1, -1, -1, -1, -1, -1, -1, -1, -1, -1, -1, -1, -1, -1
       | -1, 1, -1, -1, -1, -1, -1, -1, -1, -1, -1, -1, -1, -1, -1, -1, -1, -1, -1, -1, -1, -1, -1, -1, -1, -1, -1, -1, 1, 1, -1, -1, -1, -1, -1, -1, -1, -1, -1, -1, -1, -1, -1, -1, -1, -1, -1, -1, -1, -1, -1, -1, -1, -1, -1, -1, -1, -1, -1, -1, -1, -1, -1, -1, -1, -1, -1, -1, -1, -1, -1, -1, -1
       | -1, -1, -1, -1, -1, -1, -1, -1, -1, -1, -1, -1, -1, -1, -1, -1, -1, -1, -1, -1, -1, -1, -1, -1, -1, -1, -1, -1, 1, 1, -1, -1, -1, -1, -1, -1, -1, -1, -1, -1, -1, -1, -1, -1, -1, -1, -1, -1, -1, -1, -1, -1, -1, -1, -1, -1, -1, -1, -1, -1, -1, -1, -1, -1, -1, -1, -1, -1, -1, -1, -1, -1, -1
       | -1, 1, -1, -1, -1, -1, -1, -1, -1, -1, -1, -1, -1, -1, -1, -1, -1, -1, -1, -1, -1, -1, -1, -1, -1, -1, -1, -1, -1, -1, 1, 0, -1, -1, -1, -1, -1, -1, -1, -1, -1, -1, -1, -1, -1, -1, -1, -1, -1, -1, -1, -1, -1, -1, -1, -1, -1, -1, -1, -1, -1, -1, -1, -1, -1, -1, -1, -1, -1, -1, -1, -1, -1
       | -1, -1, -1, -1, -1, -1, -1, -1, -1, -1, -1, -1, -1, -1, -1, -1, -1, -1, -1, -1, -1, -1, -1, -1, -1, -1, -1, -1, -1, -1, 1, 1, -1, -1, -1, -1, -1, -1, -1, -1, -1, -1, -1, -1, -1, -1, -1, -1, -1, -1, -1, -1, -1, -1, -1, -1, -1, -1, -1, -1, -1, -1, -1, -1, -1, -1, -1, -1, -1, -1, -1, -1, -1
       | -1, -1, 1, -1, -1, -1, -1, -1, -1, -1, -1, -1, -1, -1, -1, -1, -1, -1, -1, -1, -1, -1, -1, -1, -1, -1, -1, -1, -1, -1, -1, -1, 1, -1, -1, -1, -1, -1, -1, -1, -1, -1, -1, -1, -1, -1, -1, -1, -1, -1, -1, -1, -1, -1, -1, -1, -1, -1, -1, -1, -1, -1, -1, -1, -1, -1, -1, -1, -1, -1, -1, -1, -1
       | -1, -1, 1, -1, -1, -1, -1, -1, -1, -1, -1, -1, -1, -1, -1, -1, -1, -1, -1, -1, -1, -1, -1, -1, -1, -1, -1, -1, -1, -1, -1, -1, -1, 1, 1, -1, -1, -1, -1, -1, -1, -1, -1, -1, -1, -1, -1, -1, -1, -1, -1, -1, -1, -1, -1, -1, -1, -1, -1, -1, -1, -1, -1, -1, -1, -1, -1, -1, -1, -1, -1, -1, -1
       | -1, -1, -1, -1, -1, -1, -1, -1, -1, -1, -1, -1, -1, -1, -1, -1, -1, -1, -1, -1, -1, -1, -1, -1, -1, -1, -1, -1, -1, -1, -1, -1, -1, 1, 1, -1, -1, -1, -1, -1, -1, -1, -1, -1, -1, -1, -1, -1, -1, -1, -1, -1, -1, -1, -1, -1, -1, -1, -1, -1, -1, -1, -1, -1, -1, -1, -1, -1, -1, -1, -1, -1, -1
       | -1, -1, 1, -1, -1, -1, -1, -1, -1, -1, -1, -1, -1, -1, -1, -1, -1, -1, -1, -1, -1, -1, -1, -1, -1, -1, -1, -1, -1, -1, -1, -1, -1, -1, -1, 1, 0, -1, -1, -1, -1, -1, -1, -1, -1, -1, -1, -1, -1, -1, -1, -1, -1, -1, -1, -1, -1, -1, -1, -1, -1, -1, -1, -1, -1, -1, -1, -1, -1, -1, -1, -1, -1
       | -1, -1, -1, -1, -1, -1, -1, -1, -1, -1, -1, -1, -1, -1, -1, -1, -1, -1, -1, -1, -1, -1, -1, -1, -1, -1, -1, -1, -1, -1, -1, -1, -1, -1, -1, 1, 1, -1, -1, -1, -1, -1, -1, -1, -1, -1, -1, -1, -1, -1, -1, -1, -1, -1, -1, -1, -1, -1, -1, -1, -1, -1, -1, -1, -1, -1, -1, -1, -1, -1, -1, -1, -1
       | -1, -1, -1, 1, -1, -1, -1, -1, -1, -1, -1, -1, -1, -1, -1, -1, -1, -1, -1, -1, -1, -1, -1, -1, -1, -1, -1, -1, -1, -1, -1, -1, -1, -1, -1, -1, -1, 1, -1, -1, -1, -1, -1, -1, -1, -1, -1, -1, -1, -1, -1, -1, -1, -1, -1, -1, -1, -1, -1, -1, -1, -1, -1, -1, -1, -1, -1, -1, -1, -1, -1, -1, -1
       | -1, -1, -1, 1, -1, -1, -1, -1, -1, -1, -1, -1, -1, -1, -1, -1, -1, -1, -1, -1, -1, -1, -1, -1, -1, -1, -1, -1, -1, -1, -1, -1, -1, -1, -1, -1, -1, -1, 1, 1, -1, -1, -1, -1, -1, -1, -1, -1, -1, -1, -1, -1, -1, -1, -1, -1, -1, -1, -1, -1, -1, -1, -1, -1, -1, -1, -1, -1, -1, -1, -1, -1, -1
       | -1, -1, -1, -1, -1, -1, -1, -1, -1, -1, -1, -1, -1, -1, -1, -1, -1, -1, -1, -1, -1, -1, -1, -1, -1, -1, -1, -1, -1, -1, -1, -1, -1, -1, -1, -1, -1, -1, 1, 1, -1, -1, -1, -1, -1, -1, -1, -1, -1, -1, -1, -1, -1, -1, -1, -1, -1, -1, -1, -1, -1, -1, -1, -1, -1, -1, -1, -1, -1, -1, -1, -1, -1
       | -1, -1, -1, 1, -1, -1, -1, -1, -1, -1, -1, -1, -1, -1, -1, -1, -1, -1, -1, -1, -1, -1, -1, -1, -1, -1, -1, -1, -1, -1, -1, -1, -1, -1, -1, -1, -1, -1, -1, -1, 1, 0, -1, -1, -1, -1, -1, -1, -1, -1, -1, -1, -1, -1, -1, -1, -1, -1, -1, -1, -1, -1, -1, -1, -1, -1, -1, -1, -1, -1, -1, -1, -1
       | -1, -1, -1, -1, -1, -1, -1, -1, -1, -1, -1, -1, -1, -1, -1, -1, -1, -1, -1, -1, -1, -1, -1, -1, -1, -1, -1, -1, -1, -1, -1, -1, -1, -1, -1, -1, -1, -1, -1, -1, 1, 1, -1, -1, -1, -1, -1, -1, -1, -1, -1, -1, -1, -1, -1, -1, -1, -1, -1, -1, -1, -1, -1, -1, -1, -1, -1, -1, -1, -1, -1, -1, -1
       | -1, -1, -1, -1, 1, -1, -1, -1, -1, -1, -1, -1, -1, -1, -1, -1, -1, -1, -1, -1, -1, -1, -1, -1, -1, -1, -1, -1, -1, -1, -1, -1, -1, -1, -1, -1, -1, -1, -1, -1, -1, -1, 1, -1, -1, -1, -1, -1, -1, -1, -1, -1, -1, -1, -1, -1, -1, -1, -1, -1, -1, -1, -1, -1, -1, -1, -1, -1, -1, -1, -1, -1, -1
       | -1, -1, -1, -1, 1, -1, -1, -1, -1, -1, -1, -1, -1, -1, -1, -1, -1, -1, -1, -1, -1, -1, -1, -1, -1, -1, -1, -1, -1, -1, -1, -1, -1, -1, -1, -1, -1, -1, -1, -1, -1, -1, -1, 1, 1, -1, -1, -1, -1, -1, -1, -1, -1, -1, -1, -1, -1, -1, -1, -1, -1, -1, -1, -1, -1, -1, -1, -1, -1, -1, -1, -1, -1
       | -1, -1, -1, -1, -1, -1, -1, -1, -1, -1, -1, -1, -1, -1, -1, -1, -1, -1, -1, -1, -1, -1, -1, -1, -1, -1, -1, -1, -1, -1, -1, -1, -1, -1, -1, -1, -1, -1, -1, -1, -1, -1, -1, 1, 1, -1, -1, -1, -1, -1, -1, -1, -1, -1, -1, -1, -1, -1, -1, -1, -1, -1, -1, -1, -1, -1, -1, -1, -1, -1, -1, -1, -1
       | -1, -1, -1, -1, 1, -1, -1, -1, -1, -1, -1, -1, -1, -1, -1, -1, -1, -1, -1, -1, -1, -1, -1, -1, -1, -1, -1, -1, -1, -1, -1, -1, -1, -1, -1, -1, -1, -1, -1, -1, -1, -1, -1, -1, -1, 1, 0, -1, -1, -1, -1, -1, -1, -1, -1, -1, -1, -1, -1, -1, -1, -1, -1, -1, -1, -1, -1, -1, -1, -1, -1, -1, -1
       | -1, -1, -1, -1, -1, -1, -1, -1, -1, -1, -1, -1, -1, -1, -1, -1, -1, -1, -1, -1, -1, -1, -1, -1, -1, -1, -1, -1, -1, -1, -1, -1, -1, -1, -1, -1, -1, -1, -1, -1, -1, -1, -1, -1, -1, 1, 1, -1, -1, -1, -1, -1, -1, -1, -1, -1, -1, -1, -1, -1, -1, -1, -1, -1, -1, -1, -1, -1, -1, -1, -1, -1, -1
       | -1, -1, -1, -1, -1, 1, -1, -1, -1, -1, -1, -1, -1, -1, -1, -1, -1, -1, -1, -1, -1, -1, -1, -1, -1, -1, -1, -1, -1, -1, -1, -1, -1, -1, -1, -1, -1, -1, -1, -1, -1, -1, -1, -1, -1, -1, -1, 1, -1, -1, -1, -1, -1, -1, -1, -1, -1, -1, -1, -1, -1, -1, -1, -1, -1, -1, -1, -1, -1, -1, -1, -1, -1
       | -1, -1, -1, -1, -1, 1, -1, -1, -1, -1, -1, -1, -1, -1, -1, -1, -1, -1, -1, -1, -1, -1, -1, -1, -1, -1, -1, -1, -1, -1, -1, -1, -1, -1, -1, -1, -1, -1, -1, -1, -1, -1, -1, -1, -1, -1, -1, -1, 1, 1, -1, -1, -1, -1, -1, -1, -1, -1, -1, -1, -1, -1, -1, -1, -1, -1, -1, -1, -1, -1, -1, -1, -1
       | -1, -1, -1, -1, -1, -1, -1, -1, -1, -1, -1, -1, -1, -1, -1, -1, -1, -1, -1, -1, -1, -1, -1, -1, -1, -1, -1, -1, -1, -1, -1, -1, -1, -1, -1, -1, -1, -1, -1, -1, -1, -1, -1, -1, -1, -1, -1, -1, 1, 1, -1, -1, -1, -1, -1, -1, -1, -1, -1, -1, -1, -1, -1, -1, -1, -1, -1, -1, -1, -1, -1, -1, -1
       | -1, -1, -1, -1, -1, 1, -1, -1, -1, -1, -1, -1, -1, -1, -1, -1, -1, -1, -1, -1, -1, -1, -1, -1, -1, -1, -1, -1, -1, -1, -1, -1, -1, -1, -1, -1, -1, -1, -1, -1, -1, -1, -1, -1, -1, -1, -1, -1, -1, -1, 1, 0, -1, -1, -1, -1, -1, -1, -1, -1, -1, -1, -1, -1, -1, -1, -1, -1, -1, -1, -1, -1, -1
       | -1, -1, -1, -1, -1, -1, -1, -1, -1, -1, -1, -1, -1, -1, -1, -1, -1, -1, -1, -1, -1, -1, -1, -1, -1, -1, -1, -1, -1, -1, -1, -1, -1, -1, -1, -1, -1, -1, -1, -1, -1, -1, -1, -1, -1, -1, -1, -1, -1, -1, 1, 1, -1, -1, -1, -1, -1, -1, -1, -1, -1, -1, -1, -1, -1, -1, -1, -1, -1, -1, -1, -1, -1
       | -1, -1, -1, -1, -1, -1, 1, -1, -1, -1, -1, -1, -1, -1, -1, -1, -1, -1, -1, -1, -1, -1, -1, -1, -1, -1, -1, -1, -1, -1, -1, -1, -1, -1, -1, -1, -1, -1, -1, -1, -1, -1, -1, -1, -1, -1, -1, -1, -1, -1, -1, -1, 1, -1, -1, -1, -1, -1, -1, -1, -1, -1, -1, -1, -1, -1, -1, -1, -1, -1, -1, -1, -1
       | -1, -1, -1, -1, -1, -1, -1, 1, -1, -1, -1, -1, -1, -1, -1, -1, -1, -1, -1, -1, -1, -1, -1, -1, -1, -1, -1, -1, -1, -1, -1, -1, -1, -1, -1, -1, -1, -1, -1, -1, -1, -1, -1, -1, -1, -1, -1, -1, -1, -1, -1, -1, -1, 1, -1, -1, -1, -1, -1, -1, -1, -1, -1, -1, -1, -1, -1, -1, -1, -1, -1, -1, -1
       | -1, -1, -1, -1, -1, -1, -1, -1, 1, -1, -1, -1, -1, -1, -1, -1, -1, -1, -1, -1, -1, -1, -1, -1, -1, -1, -1, -1, -1, -1, -1, -1, -1, -1, -1, -1, -1, -1, -1, -1, -1, -1, -1, -1, -1, -1, -1, -1, -1, -1, -1, -1, -1, -1, 1, -1, -1, -1, -1, -1, -1, -1, -1, -1, -1, -1, -1, -1, -1, -1, -1, -1, -1
       | -1, -1, -1, -1, -1, -1, -1, -1, -1, 1, -1, -1, -1, -1, -1, -1, -1, -1, -1, -1, -1, -1, -1, -1, -1, -1, -1, -1, -1, -1, -1, -1, -1, -1, -1, -1, -1, -1, -1, -1, -1, -1, -1, -1, -1, -1, -1, -1, -1, -1, -1, -1, -1, -1, -1, 1, -1, -1, -1, -1, -1, -1, -1, -1, -1, -1, -1, -1, -1, -1, -1, -1, -1
       | -1, -1, -1, -1, -1, -1, -1, -1, -1, -1, 1, -1, -1, -1, -1, -1, -1, -1, -1, -1, -1, -1, -1, -1, -1, -1, -1, -1, -1, -1, -1, -1, -1, -1, -1, -1, -1, -1, -1, -1, -1, -1, -1, -1, -1, -1, -1, -1, -1, -1, -1, -1, -1, -1, -1, -1, 1, -1, -1, -1, -1, -1, -1, -1, -1, -1, -1, -1, -1, -1, -1, -1, -1
       | -1, -1, -1, -1, -1, -1, -1, -1, -1, -1, -1, 1, -1, -1, -1, -1, -1, -1, -1, -1, -1, -1, -1, -1, -1, -1, -1, -1, -1, -1, -1, -1, -1, -1, -1, -1, -1, -1, -1, -1, -1, -1, -1, -1, -1, -1, -1, -1, -1, -1, -1, -1, -1, -1, -1, -1, -1, 1, -1, -1, -1, -1, -1, -1, -1, -1, -1, -1, -1, -1, -1, -1, -1
       | -1, -1, -1, -1, -1, -1, -1, -1, -1, -1, -1, -1, 1, -1, -1, -1, -1, -1, -1, -1, -1, -1, -1, -1, -1, -1, -1, -1, -1, -1, -1, -1, -1, -1, -1, -1, -1, -1, -1, -1, -1, -1, -1, -1, -1, -1, -1, -1, -1, -1, -1, -1, -1, -1, -1, -1, -1, -1, 1, -1, -1, -1, -1, -1, -1, -1, -1, -1, -1, -1, -1, -1, -1
       | -1, -1, -1, -1, -1, -1, -1, -1, -1, -1, -1, -1, 1, -1, -1, -1, -1, -1, -1, -1, -1, -1, -1, -1, -1, -1, -1, -1, -1, -1, -1, -1, -1, -1, -1, -1, -1, -1, -1, -1, -1, -1, -1, -1, -1, -1, -1, -1, -1, -1, -1, -1, -1, -1, -1, -1, -1, -1, -1, 1, -1, -1, -1, -1, -1, -1, -1, -1, -1, -1, -1, -1, -1
       | -1, -1, -1, -1, -1, -1, -1, -1, -1, -1, -1, -1, -1, 1, -1, -1, -1, -1, -1, -1, -1, -1, -1, -1, -1, -1, -1, -1, -1, -1, -1, -1, -1, -1, -1, -1, -1, -1, -1, -1, -1, -1, -1, -1, -1, -1, -1, -1, -1, -1, -1, -1, -1, -1, -1, -1, -1, -1, -1, -1, 1, -1, -1, -1, -1, -1, -1, -1, -1, -1, -1, -1, -1
       | -1, -1, -1, -1, -1, -1, -1, -1, -1, -1, -1, -1, -1, -1, 1, -1, -1, -1, -1, -1, -1, -1, -1, -1, -1, -1, -1, -1, -1, -1, -1, -1, -1, -1, -1, -1, -1, -1, -1, -1, -1, -1, -1, -1, -1, -1, -1, -1, -1, -1, -1, -1, -1, -1, -1, -1, -1, -1, -1, -1, -1, 1, -1, -1, -1, -1, -1, -1, -1, -1, -1, -1, -1
       | -1, -1, -1, -1, -1, -1, -1, -1, -1, -1, -1, -1, -1, -1, 1, -1, -1, -1, -1, -1, -1, -1, -1, -1, -1, -1, -1, -1, -1, -1, -1, -1, -1, -1, -1, -1, -1, -1, -1, -1, -1, -1, -1, -1, -1, -1, -1, -1, -1, -1, -1, -1, -1, -1, -1, -1, -1, -1, -1, -1, -1, -1, 1, -1, -1, -1, -1, -1, -1, -1, -1, -1, -1
       | -1, -1, -1, -1, -1, -1, -1, -1, -1, -1, -1, -1, -1, -1, -1, 1, -1, -1, -1, -1, -1, -1, -1, -1, -1, -1, -1, -1, -1, -1, -1, -1, -1, -1, -1, -1, -1, -1, -1, -1, -1, -1, -1, -1, -1, -1, -1, -1, -1, -1, -1, -1, -1, -1, -1, -1, -1, -1, -1, -1, -1, -1, -1, 1, -1, -1, -1, -1, -1, -1, -1, -1, -1
       | -1, -1, -1, -1, -1, -1, -1, -1, -1, -1, -1, -1, -1, -1, -1, -1, 1, -1, -1, -1, -1, -1, -1, -1, -1, -1, -1, -1, -1, -1, -1, -1, -1, -1, -1, -1, -1, -1, -1, -1, -1, -1, -1, -1, -1, -1, -1, -1, -1, -1, -1, -1, -1, -1, -1, -1, -1, -1, -1, -1, -1, -1, -1, -1, 1, -1, -1, -1, -1, -1, -1, -1, -1
       | -1, -1, -1, -1, -1, -1, -1, -1, -1, -1, -1, -1, -1, -1, -1, -1, 1, -1, -1, -1, -1, -1, -1, -1, -1, -1, -1, -1, -1, -1, -1, -1, -1, -1, -1, -1, -1, -1, -1, -1, -1, -1, -1, -1, -1, -1, -1, -1, -1, -1, -1, -1, -1, -1, -1, -1, -1, -1, -1, -1, -1, -1, -1, -1, -1, 1, -1, -1, -1, -1, -1, -1, -1
       | -1, -1, -1, -1, -1, -1, -1, -1, -1, -1, -1, -1, -1, -1, -1, -1, -1, 1, -1, -1, -1, -1, -1, -1, -1, -1, -1, -1, -1, -1, -1, -1, -1, -1, -1, -1, -1, -1, -1, -1, -1, -1, -1, -1, -1, -1, -1, -1, -1, -1, -1, -1, -1, -1, -1, -1, -1, -1, -1, -1, -1, -1, -1, -1, -1, -1, 1, -1, -1, -1, -1, -1, -1
       | -1, -1, -1, -1, -1, -1, -1, -1, -1, -1, -1, -1, -1, -1, -1, -1, -1, -1, 1, -1, -1, -1, -1, -1, -1, -1, -1, -1, -1, -1, -1, -1, -1, -1, -1, -1, -1, -1, -1, -1, -1, -1, -1, -1, -1, -1, -1, -1, -1, -1, -1, -1, -1, -1, -1, -1, -1, -1, -1, -1, -1, -1, -1, -1, -1, -1, -1, 1, -1, -1, -1, -1, -1
       | -1, -1, -1, -1, -1, -1, -1, -1, -1, -1, -1, -1, -1, -1, -1, -1, -1, -1, 1, -1, -1, -1, -1, -1, -1, -1, -1, -1, -1, -1, -1, -1, -1, -1, -1, -1, -1, -1, -1, -1, -1, -1, -1, -1, -1, -1, -1, -1, -1, -1, -1, -1, -1, -1, -1, -1, -1, -1, -1, -1, -1, -1, -1, -1, -1, -1, -1, -1, 1, -1, -1, -1, -1
       | -1, -1, -1, -1, -1, -1, -1, -1, -1, -1, -1, -1, -1, -1, -1, -1, -1, -1, -1, 1, -1, -1, -1, -1, -1, -1, -1, -1, -1, -1, -1, -1, -1, -1, -1, -1, -1, -1, -1, -1, -1, -1, -1, -1, -1, -1, -1, -1, -1, -1, -1, -1, -1, -1, -1, -1, -1, -1, -1, -1, -1, -1, -1, -1, -1, -1, -1, -1, -1, 1, -1, -1, -1
       | -1, -1, -1, -1, -1, -1, -1, -1, -1, -1, -1, -1, -1, -1, -1, -1, -1, -1, -1, -1, 1, -1, -1, -1, -1, -1, -1, -1, -1, -1, -1, -1, -1, -1, -1, -1, -1, -1, -1, -1, -1, -1, -1, -1, -1, -1, -1, -1, -1, -1, -1, -1, -1, -1, -1, -1, -1, -1, -1, -1, -1, -1, -1, -1, -1, -1, -1, -1, -1, -1, 1, -1, -1
       | -1, -1, -1, -1, -1, -1, -1, -1, -1, -1, -1, -1, -1, -1, -1, -1, -1, -1, -1, -1, 1, -1, -1, -1, -1, -1, -1, -1, -1, -1, -1, -1, -1, -1, -1, -1, -1, -1, -1, -1, -1, -1, -1, -1, -1, -1, -1, -1, -1, -1, -1, -1, -1, -1, -1, -1, -1, -1, -1, -1, -1, -1, -1, -1, -1, -1, -1, -1, -1, -1, -1, 1, -1
       | -1, -1, -1, -1, -1, -1, -1, -1, -1, -1, -1, -1, -1, -1, -1, -1, -1, -1, -1, -1, -1, 1, -1, -1, -1, -1, -1, -1, -1, -1, -1, -1, -1, -1, -1, -1, -1, -1, -1, -1, -1, -1, -1, -1, -1, -1, -1, -1, -1, -1, -1, -1, -1, -1, -1, -1, -1, -1, -1, -1, -1, -1, -1, -1, -1, -1, -1, -1, -1, -1, -1, -1, 1 |]);

% ---- platform ----
P = 8;
nFCR = 8;
nCoreTypes = 3;
nModes = 1;
ctype = [1, 1, 1, 2, 2, 2, 3, 3];
fcr = [1, 2, 3, 4, 5, 6, 7, 8];
core_model = ["proc_0", "proc_1", "proc_2"];
max_sil = [4, 4, 4];
core_mem = [64000, 64000, 64000];
partitionable = [false, false, false];
partition_cost = [0, 0, 0];
n_modes_of = [1, 1, 1];
fcr_price = [10, 10, 10, 20, 20, 20, 30, 30];
core_price = array2d(1..3, 1..1,
  [| 10
     | 20
     | 30 |]);
core_power = array2d(1..3, 1..1,
  [| 50
     | 60
     | 70 |]);

% symmetry classes: slots that are genuinely interchangeable
nSymClasses = 0;
symClassSize = [];
maxSymClassSize = 1;
symClass = array2d(1..1, 1..1,
  [| 0 |]);
nInterGroups = 3;
maxInterGroupSize = 3;
interGroupSize = [3, 3, 2];
interGroup = array2d(1..3, 1..3,
  [| 1, 2, 3
     | 4, 5, 6
     | 7, 8, 0 |]);
nTmplGroups = 3;
maxTmplGroupSize = 3;
tmplGroupSize = [3, 3, 2];
tmplGroup = array2d(1..3, 1..3,
  [| 1, 2, 3
     | 4, 5, 6
     | 7, 8, 0 |]);

% ---- timing ----
wcet = array3d(1..73, 1..3, 1..1, [5, 6, 1000000, 1000000, 1000000, 5, 1000000, 17, 1000000, 1000000, 17, 1000000, 1000000, 9, 1000000, 1000000, 12, 2, 1000000, 1000000, 10, 3, 11, 1000000, 1000000, 7, 1000000, 8, 1000000, 1000000, 1000000, 1000000, 8, 1000000, 1000000, 8, 20, 1000000, 1000000, 1000000, 18, 1000000, 1000000, 10, 1000000, 1000000, 9, 1000000, 12, 1000000, 1000000, 1000000, 1000000, 7, 1000000, 5, 1000000, 11, 10, 1000000, 14, 1000000, 1000000, 1000000, 11, 1000000, 5, 6, 1000000, 2, 2, 1000000, 2, 2, 1000000, 5, 6, 1000000, 5, 6, 1000000, 1000000, 1000000, 5, 1000000, 1000000, 2, 1000000, 1000000, 2, 1000000, 1000000, 5, 1000000, 1000000, 5, 1000000, 17, 1000000, 1000000, 5, 1000000, 1000000, 5, 1000000, 1000000, 17, 1000000, 1000000, 17, 1000000, 1000000, 17, 1000000, 1000000, 5, 1000000, 1000000, 5, 1000000, 1000000, 17, 1000000, 1000000, 17, 1000000, 1000000, 9, 1000000, 1000000, 3, 1000000, 1000000, 3, 1000000, 1000000, 9, 1000000, 1000000, 9, 1000000, 1000000, 12, 2, 1000000, 4, 1, 1000000, 4, 1, 1000000, 12, 2, 1000000, 12, 2, 1000000, 1000000, 3, 1, 3, 1000000, 1000000, 2, 1000000, 2, 1000000, 1000000, 1000000, 1000000, 2, 1000000, 1000000, 2, 6, 1000000, 1000000, 20, 1000000, 1000000, 1000000, 18, 1000000, 1000000, 3, 1000000, 1000000, 10, 1000000, 1000000, 9, 1000000, 4, 1000000, 1000000, 12, 1000000, 1000000, 1000000, 1000000, 7, 1000000, 2, 1000000, 1000000, 5, 1000000, 11, 10, 1000000, 4, 1000000, 1000000, 14, 1000000, 1000000, 1000000, 11, 1000000]);
mem_req = [1, 1, 1, 1, 1, 1, 1, 1, 1, 1, 1, 1, 1, 1, 1, 1, 1, 1, 1, 1, 1, 1, 1, 1, 1, 1, 1, 1, 1, 1, 1, 1, 1, 1, 1, 1, 1, 1, 1, 1, 1, 1, 1, 1, 1, 1, 1, 1, 1, 1, 1, 1, 1, 1, 1, 1, 1, 1, 1, 1, 1, 1, 1, 1, 1, 1, 1, 1, 1, 1, 1, 1, 1];

% ---- safety ----
sil_req_parent = [3, 3, 3, 3, 3, 3, 2, 2, 2, 2, 2, 2, 1, 0, 1, 0, 1, 0, 1, 0, 1, 0, 3, 3, 3, 3, 3, 3, 3, 3, 3, 3, 3, 3, 3, 3, 3, 3, 3, 3, 3, 3, 3, 3, 3, 3, 3, 3, 3, 3, 3, 3, 2, 2, 2, 2, 2, 2, 1, 1, 0, 1, 1, 0, 1, 1, 0, 1, 1, 0, 1, 1, 0];
dev_base = [100, 100, 100, 100, 100, 100, 100, 100, 100, 100, 100, 100, 100, 100, 100, 100, 100, 100, 100, 100, 100, 100, 100, 100, 100, 100, 100, 100, 100, 100, 100, 100, 100, 100, 100, 100, 100, 100, 100, 100, 100, 100, 100, 100, 100, 100, 100, 100, 100, 100, 100, 100, 100, 100, 100, 100, 100, 100, 100, 100, 100, 100, 100, 100, 100, 100, 100, 100, 100, 100, 100, 100, 100];
dev_k = array1d(0..4, [100, 113, 225, 518, 906]);
allow_promotion = true;

% ---- design constraints ----
period_ub = [67];
min_wcet = [5, 5, 17, 17, 9, 2, 10, 3, 7, 8, 8, 8, 20, 18, 10, 9, 12, 7, 5, 10, 14, 11, 5, 2, 2, 5, 5, 5, 2, 2, 5, 5, 17, 5, 5, 17, 17, 17, 5, 5, 17, 17, 9, 3, 3, 9, 9, 2, 1, 1, 2, 2, 3, 1, 2, 2, 2, 2, 6, 20, 18, 3, 10, 9, 4, 12, 7, 2, 5, 10, 4, 14, 11];
min_procs = [4];
period_mode_partitioned = false;

% ---- latency ----
nLatCon = 0;
lat_src = [];
lat_dst = [];
lat_rho = [];
lat_ub  = [];

% ---- safety patterns: guarded superposition ----
nPat = 9;
pat_name = ["none", "low_sil_doer_checker", "two_of_two_high_sil", "high_sil_isolated_checker", "mixed_sil_doer_checker", "same_cpu_doer_checker", "dual_two_of_two", "one_of_two_failover", "low_sil_diverse_doer_checker"];
pat_recurring = [0, 2, 2, 2, 3, 1, 4, 2, 2];
pat_allowed = array2d(1..73, 1..9,
  [| false, false, true, true, true, false, true, false, false
     | false, false, true, true, true, false, true, false, false
     | false, false, true, true, true, false, true, false, false
     | false, false, true, true, true, false, true, false, false
     | false, false, true, true, true, false, true, false, false
     | false, false, true, true, true, false, true, false, false
     | false, true, false, false, false, false, false, false, true
     | false, true, false, false, false, false, false, false, true
     | false, true, false, false, false, false, false, false, true
     | false, true, false, false, false, false, false, false, true
     | false, true, false, false, false, false, false, false, true
     | false, true, false, false, false, false, false, false, true
     | true, true, false, false, false, false, false, true, true
     | true, false, false, false, false, false, false, true, false
     | true, true, false, false, false, false, false, true, true
     | true, false, false, false, false, false, false, true, false
     | true, true, false, false, false, false, false, true, true
     | true, false, false, false, false, false, false, true, false
     | true, true, false, false, false, false, false, true, true
     | true, false, false, false, false, false, false, true, false
     | true, true, false, false, false, false, false, true, true
     | true, false, false, false, false, false, false, true, false
     | false, false, true, true, true, false, true, false, false
     | false, false, true, true, true, false, true, false, false
     | false, false, true, true, true, false, true, false, false
     | false, false, true, true, true, false, true, false, false
     | false, false, true, true, true, false, true, false, false
     | false, false, true, true, true, false, true, false, false
     | false, false, true, true, true, false, true, false, false
     | false, false, true, true, true, false, true, false, false
     | false, false, true, true, true, false, true, false, false
     | false, false, true, true, true, false, true, false, false
     | false, false, true, true, true, false, true, false, false
     | false, false, true, true, true, false, true, false, false
     | false, false, true, true, true, false, true, false, false
     | false, false, true, true, true, false, true, false, false
     | false, false, true, true, true, false, true, false, false
     | false, false, true, true, true, false, true, false, false
     | false, false, true, true, true, false, true, false, false
     | false, false, true, true, true, false, true, false, false
     | false, false, true, true, true, false, true, false, false
     | false, false, true, true, true, false, true, false, false
     | false, false, true, true, true, false, true, false, false
     | false, false, true, true, true, false, true, false, false
     | false, false, true, true, true, false, true, false, false
     | false, false, true, true, true, false, true, false, false
     | false, false, true, true, true, false, true, false, false
     | false, false, true, true, true, false, true, false, false
     | false, false, true, true, true, false, true, false, false
     | false, false, true, true, true, false, true, false, false
     | false, false, true, true, true, false, true, false, false
     | false, false, true, true, true, false, true, false, false
     | false, true, false, false, false, false, false, false, true
     | false, true, false, false, false, false, false, false, true
     | false, true, false, false, false, false, false, false, true
     | false, true, false, false, false, false, false, false, true
     | false, true, false, false, false, false, false, false, true
     | false, true, false, false, false, false, false, false, true
     | true, true, false, false, false, false, false, true, true
     | true, true, false, false, false, false, false, true, true
     | true, false, false, false, false, false, false, true, false
     | true, true, false, false, false, false, false, true, true
     | true, true, false, false, false, false, false, true, true
     | true, false, false, false, false, false, false, true, false
     | true, true, false, false, false, false, false, true, true
     | true, true, false, false, false, false, false, true, true
     | true, false, false, false, false, false, false, true, false
     | true, true, false, false, false, false, false, true, true
     | true, true, false, false, false, false, false, true, true
     | true, false, false, false, false, false, false, true, false
     | true, true, false, false, false, false, false, true, true
     | true, true, false, false, false, false, false, true, true
     | true, false, false, false, false, false, false, true, false |]);
par_owner = [1, 2, 3, 4, 5, 6, 7, 8, 9, 10, 11, 12, 13, 14, 15, 16, 17, 18, 19, 20, 21, 22, 1, 1, 1, 1, 1, 2, 2, 2, 2, 2, 3, 3, 3, 3, 3, 4, 4, 4, 4, 4, 5, 5, 5, 5, 5, 6, 6, 6, 6, 6, 7, 8, 9, 10, 11, 12, 13, 13, 14, 15, 15, 16, 17, 17, 18, 19, 19, 20, 21, 21, 22];
node_owner = [1, 2, 3, 4, 5, 6, 7, 8, 9, 10, 11, 12, 13, 14, 15, 16, 17, 18, 19, 20, 21, 22, 1, 1, 1, 1, 1, 2, 2, 2, 2, 2, 3, 3, 3, 3, 3, 4, 4, 4, 4, 4, 5, 5, 5, 5, 5, 6, 6, 6, 6, 6, 7, 8, 9, 10, 11, 12, 13, 13, 14, 15, 15, 16, 17, 17, 18, 19, 19, 20, 21, 21, 22];
owner_node = [1, 2, 3, 4, 5, 6, 7, 8, 9, 10, 11, 12, 13, 14, 15, 16, 17, 18, 19, 20, 21, 22, 1, 1, 1, 1, 1, 2, 2, 2, 2, 2, 3, 3, 3, 3, 3, 4, 4, 4, 4, 4, 5, 5, 5, 5, 5, 6, 6, 6, 6, 6, 7, 8, 9, 10, 11, 12, 13, 13, 14, 15, 15, 16, 17, 17, 18, 19, 19, 20, 21, 21, 22];
node_guard = array2d(1..73, 1..9,
  [| true, true, true, true, true, true, true, true, true
     | true, true, true, true, true, true, true, true, true
     | true, true, true, true, true, true, true, true, true
     | true, true, true, true, true, true, true, true, true
     | true, true, true, true, true, true, true, true, true
     | true, true, true, true, true, true, true, true, true
     | true, true, true, true, true, true, true, true, true
     | true, true, true, true, true, true, true, true, true
     | true, true, true, true, true, true, true, true, true
     | true, true, true, true, true, true, true, true, true
     | true, true, true, true, true, true, true, true, true
     | true, true, true, true, true, true, true, true, true
     | true, true, true, true, true, true, true, true, true
     | true, true, true, true, true, true, true, true, true
     | true, true, true, true, true, true, true, true, true
     | true, true, true, true, true, true, true, true, true
     | true, true, true, true, true, true, true, true, true
     | true, true, true, true, true, true, true, true, true
     | true, true, true, true, true, true, true, true, true
     | true, true, true, true, true, true, true, true, true
     | true, true, true, true, true, true, true, true, true
     | true, true, true, true, true, true, true, true, true
     | false, false, true, false, false, false, true, false, false
     | false, false, false, true, true, false, false, false, false
     | false, false, false, false, true, false, false, false, false
     | false, false, false, false, false, false, true, false, false
     | false, false, false, false, false, false, true, false, false
     | false, false, true, false, false, false, true, false, false
     | false, false, false, true, true, false, false, false, false
     | false, false, false, false, true, false, false, false, false
     | false, false, false, false, false, false, true, false, false
     | false, false, false, false, false, false, true, false, false
     | false, false, true, false, false, false, true, false, false
     | false, false, false, true, true, false, false, false, false
     | false, false, false, false, true, false, false, false, false
     | false, false, false, false, false, false, true, false, false
     | false, false, false, false, false, false, true, false, false
     | false, false, true, false, false, false, true, false, false
     | false, false, false, true, true, false, false, false, false
     | false, false, false, false, true, false, false, false, false
     | false, false, false, false, false, false, true, false, false
     | false, false, false, false, false, false, true, false, false
     | false, false, true, false, false, false, true, false, false
     | false, false, false, true, true, false, false, false, false
     | false, false, false, false, true, false, false, false, false
     | false, false, false, false, false, false, true, false, false
     | false, false, false, false, false, false, true, false, false
     | false, false, true, false, false, false, true, false, false
     | false, false, false, true, true, false, false, false, false
     | false, false, false, false, true, false, false, false, false
     | false, false, false, false, false, false, true, false, false
     | false, false, false, false, false, false, true, false, false
     | false, true, false, false, false, false, false, false, true
     | false, true, false, false, false, false, false, false, true
     | false, true, false, false, false, false, false, false, true
     | false, true, false, false, false, false, false, false, true
     | false, true, false, false, false, false, false, false, true
     | false, true, false, false, false, false, false, false, true
     | false, true, false, false, false, false, false, false, true
     | false, false, false, false, false, false, false, true, false
     | false, false, false, false, false, false, false, true, false
     | false, true, false, false, false, false, false, false, true
     | false, false, false, false, false, false, false, true, false
     | false, false, false, false, false, false, false, true, false
     | false, true, false, false, false, false, false, false, true
     | false, false, false, false, false, false, false, true, false
     | false, false, false, false, false, false, false, true, false
     | false, true, false, false, false, false, false, false, true
     | false, false, false, false, false, false, false, true, false
     | false, false, false, false, false, false, false, true, false
     | false, true, false, false, false, false, false, false, true
     | false, false, false, false, false, false, false, true, false
     | false, false, false, false, false, false, false, true, false |]);
nPE = 265;
pe_src = [1, 23, 2, 6, 1, 24, 2, 6, 1, 1, 24, 25, 24, 2, 6, 2, 6, 1, 23, 26, 27, 26, 2, 6, 2, 6, 2, 6, 2, 28, 4, 2, 29, 4, 2, 2, 29, 30, 29, 4, 4, 2, 28, 31, 32, 31, 4, 4, 4, 3, 33, 1, 11, 3, 34, 1, 11, 3, 3, 34, 35, 34, 1, 11, 1, 11, 3, 33, 36, 37, 36, 1, 11, 1, 11, 1, 11, 4, 38, 14, 4, 39, 14, 4, 4, 39, 40, 39, 14, 14, 4, 38, 41, 42, 41, 14, 14, 14, 5, 43, 3, 5, 44, 3, 5, 5, 44, 45, 44, 3, 3, 5, 43, 46, 47, 46, 3, 3, 3, 6, 48, 5, 8, 10, 6, 49, 5, 8, 10, 6, 6, 49, 50, 49, 5, 8, 10, 5, 8, 10, 6, 48, 51, 52, 51, 5, 8, 10, 5, 8, 10, 5, 8, 10, 7, 53, 3, 13, 7, 53, 3, 13, 8, 54, 16, 1, 8, 54, 16, 1, 9, 55, 5, 18, 9, 55, 5, 18, 10, 56, 22, 10, 56, 22, 11, 57, 9, 11, 57, 9, 12, 58, 5, 12, 58, 5, 13, 59, 19, 60, 19, 13, 59, 19, 61, 21, 13, 9, 15, 62, 14, 7, 63, 14, 7, 15, 62, 14, 7, 64, 21, 17, 65, 6, 12, 20, 66, 6, 12, 20, 17, 65, 6, 12, 20, 67, 22, 19, 1, 19, 68, 15, 69, 15, 19, 68, 15, 70, 12, 21, 71, 11, 9, 19, 72, 11, 9, 19, 21, 71, 11, 9, 19, 73, 17];
pe_dst = [23, 1, 23, 23, 24, 1, 24, 24, 24, 25, 25, 24, 1, 24, 24, 25, 25, 23, 1, 27, 26, 1, 23, 23, 26, 26, 27, 27, 28, 2, 28, 29, 2, 29, 29, 30, 30, 29, 2, 29, 30, 28, 2, 32, 31, 2, 28, 31, 32, 33, 3, 33, 33, 34, 3, 34, 34, 34, 35, 35, 34, 3, 34, 34, 35, 35, 33, 3, 37, 36, 3, 33, 33, 36, 36, 37, 37, 38, 4, 38, 39, 4, 39, 39, 40, 40, 39, 4, 39, 40, 38, 4, 42, 41, 4, 38, 41, 42, 43, 5, 43, 44, 5, 44, 44, 45, 45, 44, 5, 44, 45, 43, 5, 47, 46, 5, 43, 46, 47, 48, 6, 48, 48, 48, 49, 6, 49, 49, 49, 49, 50, 50, 49, 6, 49, 49, 49, 50, 50, 50, 48, 6, 52, 51, 6, 48, 48, 48, 51, 51, 51, 52, 52, 52, 53, 7, 53, 53, 53, 7, 53, 53, 54, 8, 54, 54, 54, 8, 54, 54, 55, 9, 55, 55, 55, 9, 55, 55, 56, 10, 56, 56, 10, 56, 57, 11, 57, 57, 11, 57, 58, 12, 58, 58, 12, 58, 59, 13, 59, 13, 60, 59, 13, 59, 14, 61, 61, 61, 62, 15, 62, 62, 15, 63, 63, 62, 15, 62, 62, 16, 64, 65, 17, 65, 65, 65, 17, 66, 66, 66, 65, 17, 65, 65, 65, 18, 67, 67, 67, 68, 19, 68, 19, 69, 68, 19, 68, 20, 70, 71, 21, 71, 71, 71, 21, 72, 72, 72, 71, 21, 71, 71, 71, 22, 73];
pe_tok = [0, 1, 1, 0, 0, 1, 1, 0, 0, 0, 1, 1, 1, 1, 0, 1, 0, 0, 1, 0, 1, 1, 1, 0, 1, 0, 1, 0, 0, 1, 0, 0, 1, 0, 0, 0, 1, 1, 1, 0, 0, 0, 1, 0, 1, 1, 0, 0, 0, 0, 1, 0, 0, 0, 1, 0, 0, 0, 0, 1, 1, 1, 0, 0, 0, 0, 0, 1, 0, 1, 1, 0, 0, 0, 0, 0, 0, 0, 1, 0, 0, 1, 0, 0, 0, 1, 1, 1, 0, 0, 0, 1, 0, 1, 1, 0, 0, 0, 0, 1, 1, 0, 1, 1, 0, 0, 1, 1, 1, 1, 1, 0, 1, 0, 1, 1, 1, 1, 1, 0, 1, 1, 0, 1, 0, 1, 1, 0, 1, 0, 0, 1, 1, 1, 1, 0, 1, 1, 0, 1, 0, 1, 0, 1, 1, 1, 0, 1, 1, 0, 1, 1, 0, 1, 0, 1, 2, 0, 0, 1, 2, 0, 0, 1, 0, 1, 0, 1, 0, 1, 0, 1, 1, 0, 0, 1, 1, 0, 0, 1, 0, 0, 1, 0, 0, 1, 0, 0, 1, 0, 0, 1, 0, 0, 1, 0, 0, 1, 0, 1, 0, 0, 1, 0, 1, 0, 0, 0, 0, 1, 1, 1, 1, 1, 1, 0, 1, 1, 1, 1, 0, 0, 1, 0, 1, 1, 1, 0, 1, 1, 0, 1, 0, 1, 1, 1, 1, 0, 1, 0, 1, 0, 1, 0, 0, 1, 0, 1, 1, 0, 1, 2, 1, 0, 1, 2, 1, 0, 0, 1, 2, 1, 0, 1, 1];
pe_owner = [1, 1, 1, 1, 1, 1, 1, 1, 1, 1, 1, 1, 1, 1, 1, 1, 1, 1, 1, 1, 1, 1, 1, 1, 1, 1, 1, 1, 2, 2, 2, 2, 2, 2, 2, 2, 2, 2, 2, 2, 2, 2, 2, 2, 2, 2, 2, 2, 2, 3, 3, 3, 3, 3, 3, 3, 3, 3, 3, 3, 3, 3, 3, 3, 3, 3, 3, 3, 3, 3, 3, 3, 3, 3, 3, 3, 3, 4, 4, 4, 4, 4, 4, 4, 4, 4, 4, 4, 4, 4, 4, 4, 4, 4, 4, 4, 4, 4, 5, 5, 5, 5, 5, 5, 5, 5, 5, 5, 5, 5, 5, 5, 5, 5, 5, 5, 5, 5, 5, 6, 6, 6, 6, 6, 6, 6, 6, 6, 6, 6, 6, 6, 6, 6, 6, 6, 6, 6, 6, 6, 6, 6, 6, 6, 6, 6, 6, 6, 6, 6, 6, 6, 6, 6, 7, 7, 7, 7, 7, 7, 7, 7, 8, 8, 8, 8, 8, 8, 8, 8, 9, 9, 9, 9, 9, 9, 9, 9, 10, 10, 10, 10, 10, 10, 11, 11, 11, 11, 11, 11, 12, 12, 12, 12, 12, 12, 13, 13, 13, 13, 13, 13, 13, 13, 14, 14, 14, 14, 15, 15, 15, 15, 15, 15, 15, 15, 15, 15, 15, 16, 16, 17, 17, 17, 17, 17, 17, 17, 17, 17, 17, 17, 17, 17, 17, 18, 18, 18, 18, 19, 19, 19, 19, 19, 19, 19, 19, 20, 20, 21, 21, 21, 21, 21, 21, 21, 21, 21, 21, 21, 21, 21, 21, 22, 22];
pe_guard = array2d(1..265, 1..9,
  [| false, false, true, false, false, false, false, false, false
     | false, false, true, false, false, false, false, false, false
     | false, false, true, false, false, false, false, false, false
     | false, false, true, false, false, false, false, false, false
     | false, false, false, true, false, false, false, false, false
     | false, false, false, true, false, false, false, false, false
     | false, false, false, true, false, false, false, false, false
     | false, false, false, true, false, false, false, false, false
     | false, false, false, false, true, false, false, false, false
     | false, false, false, false, true, false, false, false, false
     | false, false, false, false, true, false, false, false, false
     | false, false, false, false, true, false, false, false, false
     | false, false, false, false, true, false, false, false, false
     | false, false, false, false, true, false, false, false, false
     | false, false, false, false, true, false, false, false, false
     | false, false, false, false, true, false, false, false, false
     | false, false, false, false, true, false, false, false, false
     | false, false, false, false, false, false, true, false, false
     | false, false, false, false, false, false, true, false, false
     | false, false, false, false, false, false, true, false, false
     | false, false, false, false, false, false, true, false, false
     | false, false, false, false, false, false, true, false, false
     | false, false, false, false, false, false, true, false, false
     | false, false, false, false, false, false, true, false, false
     | false, false, false, false, false, false, true, false, false
     | false, false, false, false, false, false, true, false, false
     | false, false, false, false, false, false, true, false, false
     | false, false, false, false, false, false, true, false, false
     | false, false, true, false, false, false, false, false, false
     | false, false, true, false, false, false, false, false, false
     | false, false, true, false, false, false, false, false, false
     | false, false, false, true, false, false, false, false, false
     | false, false, false, true, false, false, false, false, false
     | false, false, false, true, false, false, false, false, false
     | false, false, false, false, true, false, false, false, false
     | false, false, false, false, true, false, false, false, false
     | false, false, false, false, true, false, false, false, false
     | false, false, false, false, true, false, false, false, false
     | false, false, false, false, true, false, false, false, false
     | false, false, false, false, true, false, false, false, false
     | false, false, false, false, true, false, false, false, false
     | false, false, false, false, false, false, true, false, false
     | false, false, false, false, false, false, true, false, false
     | false, false, false, false, false, false, true, false, false
     | false, false, false, false, false, false, true, false, false
     | false, false, false, false, false, false, true, false, false
     | false, false, false, false, false, false, true, false, false
     | false, false, false, false, false, false, true, false, false
     | false, false, false, false, false, false, true, false, false
     | false, false, true, false, false, false, false, false, false
     | false, false, true, false, false, false, false, false, false
     | false, false, true, false, false, false, false, false, false
     | false, false, true, false, false, false, false, false, false
     | false, false, false, true, false, false, false, false, false
     | false, false, false, true, false, false, false, false, false
     | false, false, false, true, false, false, false, false, false
     | false, false, false, true, false, false, false, false, false
     | false, false, false, false, true, false, false, false, false
     | false, false, false, false, true, false, false, false, false
     | false, false, false, false, true, false, false, false, false
     | false, false, false, false, true, false, false, false, false
     | false, false, false, false, true, false, false, false, false
     | false, false, false, false, true, false, false, false, false
     | false, false, false, false, true, false, false, false, false
     | false, false, false, false, true, false, false, false, false
     | false, false, false, false, true, false, false, false, false
     | false, false, false, false, false, false, true, false, false
     | false, false, false, false, false, false, true, false, false
     | false, false, false, false, false, false, true, false, false
     | false, false, false, false, false, false, true, false, false
     | false, false, false, false, false, false, true, false, false
     | false, false, false, false, false, false, true, false, false
     | false, false, false, false, false, false, true, false, false
     | false, false, false, false, false, false, true, false, false
     | false, false, false, false, false, false, true, false, false
     | false, false, false, false, false, false, true, false, false
     | false, false, false, false, false, false, true, false, false
     | false, false, true, false, false, false, false, false, false
     | false, false, true, false, false, false, false, false, false
     | false, false, true, false, false, false, false, false, false
     | false, false, false, true, false, false, false, false, false
     | false, false, false, true, false, false, false, false, false
     | false, false, false, true, false, false, false, false, false
     | false, false, false, false, true, false, false, false, false
     | false, false, false, false, true, false, false, false, false
     | false, false, false, false, true, false, false, false, false
     | false, false, false, false, true, false, false, false, false
     | false, false, false, false, true, false, false, false, false
     | false, false, false, false, true, false, false, false, false
     | false, false, false, false, true, false, false, false, false
     | false, false, false, false, false, false, true, false, false
     | false, false, false, false, false, false, true, false, false
     | false, false, false, false, false, false, true, false, false
     | false, false, false, false, false, false, true, false, false
     | false, false, false, false, false, false, true, false, false
     | false, false, false, false, false, false, true, false, false
     | false, false, false, false, false, false, true, false, false
     | false, false, false, false, false, false, true, false, false
     | false, false, true, false, false, false, false, false, false
     | false, false, true, false, false, false, false, false, false
     | false, false, true, false, false, false, false, false, false
     | false, false, false, true, false, false, false, false, false
     | false, false, false, true, false, false, false, false, false
     | false, false, false, true, false, false, false, false, false
     | false, false, false, false, true, false, false, false, false
     | false, false, false, false, true, false, false, false, false
     | false, false, false, false, true, false, false, false, false
     | false, false, false, false, true, false, false, false, false
     | false, false, false, false, true, false, false, false, false
     | false, false, false, false, true, false, false, false, false
     | false, false, false, false, true, false, false, false, false
     | false, false, false, false, false, false, true, false, false
     | false, false, false, false, false, false, true, false, false
     | false, false, false, false, false, false, true, false, false
     | false, false, false, false, false, false, true, false, false
     | false, false, false, false, false, false, true, false, false
     | false, false, false, false, false, false, true, false, false
     | false, false, false, false, false, false, true, false, false
     | false, false, false, false, false, false, true, false, false
     | false, false, true, false, false, false, false, false, false
     | false, false, true, false, false, false, false, false, false
     | false, false, true, false, false, false, false, false, false
     | false, false, true, false, false, false, false, false, false
     | false, false, true, false, false, false, false, false, false
     | false, false, false, true, false, false, false, false, false
     | false, false, false, true, false, false, false, false, false
     | false, false, false, true, false, false, false, false, false
     | false, false, false, true, false, false, false, false, false
     | false, false, false, true, false, false, false, false, false
     | false, false, false, false, true, false, false, false, false
     | false, false, false, false, true, false, false, false, false
     | false, false, false, false, true, false, false, false, false
     | false, false, false, false, true, false, false, false, false
     | false, false, false, false, true, false, false, false, false
     | false, false, false, false, true, false, false, false, false
     | false, false, false, false, true, false, false, false, false
     | false, false, false, false, true, false, false, false, false
     | false, false, false, false, true, false, false, false, false
     | false, false, false, false, true, false, false, false, false
     | false, false, false, false, true, false, false, false, false
     | false, false, false, false, false, false, true, false, false
     | false, false, false, false, false, false, true, false, false
     | false, false, false, false, false, false, true, false, false
     | false, false, false, false, false, false, true, false, false
     | false, false, false, false, false, false, true, false, false
     | false, false, false, false, false, false, true, false, false
     | false, false, false, false, false, false, true, false, false
     | false, false, false, false, false, false, true, false, false
     | false, false, false, false, false, false, true, false, false
     | false, false, false, false, false, false, true, false, false
     | false, false, false, false, false, false, true, false, false
     | false, false, false, false, false, false, true, false, false
     | false, false, false, false, false, false, true, false, false
     | false, false, false, false, false, false, true, false, false
     | false, true, false, false, false, false, false, false, false
     | false, true, false, false, false, false, false, false, false
     | false, true, false, false, false, false, false, false, false
     | false, true, false, false, false, false, false, false, false
     | false, false, false, false, false, false, false, false, true
     | false, false, false, false, false, false, false, false, true
     | false, false, false, false, false, false, false, false, true
     | false, false, false, false, false, false, false, false, true
     | false, true, false, false, false, false, false, false, false
     | false, true, false, false, false, false, false, false, false
     | false, true, false, false, false, false, false, false, false
     | false, true, false, false, false, false, false, false, false
     | false, false, false, false, false, false, false, false, true
     | false, false, false, false, false, false, false, false, true
     | false, false, false, false, false, false, false, false, true
     | false, false, false, false, false, false, false, false, true
     | false, true, false, false, false, false, false, false, false
     | false, true, false, false, false, false, false, false, false
     | false, true, false, false, false, false, false, false, false
     | false, true, false, false, false, false, false, false, false
     | false, false, false, false, false, false, false, false, true
     | false, false, false, false, false, false, false, false, true
     | false, false, false, false, false, false, false, false, true
     | false, false, false, false, false, false, false, false, true
     | false, true, false, false, false, false, false, false, false
     | false, true, false, false, false, false, false, false, false
     | false, true, false, false, false, false, false, false, false
     | false, false, false, false, false, false, false, false, true
     | false, false, false, false, false, false, false, false, true
     | false, false, false, false, false, false, false, false, true
     | false, true, false, false, false, false, false, false, false
     | false, true, false, false, false, false, false, false, false
     | false, true, false, false, false, false, false, false, false
     | false, false, false, false, false, false, false, false, true
     | false, false, false, false, false, false, false, false, true
     | false, false, false, false, false, false, false, false, true
     | false, true, false, false, false, false, false, false, false
     | false, true, false, false, false, false, false, false, false
     | false, true, false, false, false, false, false, false, false
     | false, false, false, false, false, false, false, false, true
     | false, false, false, false, false, false, false, false, true
     | false, false, false, false, false, false, false, false, true
     | false, true, false, false, false, false, false, false, false
     | false, true, false, false, false, false, false, false, false
     | false, true, false, false, false, false, false, false, false
     | false, false, false, false, false, false, false, true, false
     | false, false, false, false, false, false, false, true, false
     | false, false, false, false, false, false, false, false, true
     | false, false, false, false, false, false, false, false, true
     | false, false, false, false, false, false, false, false, true
     | false, false, false, false, false, false, false, true, false
     | false, false, false, false, false, false, false, true, false
     | false, false, false, false, false, false, false, true, false
     | false, false, false, false, false, false, false, true, false
     | false, true, false, false, false, false, false, false, false
     | false, true, false, false, false, false, false, false, false
     | false, true, false, false, false, false, false, false, false
     | false, true, false, false, false, false, false, false, false
     | false, false, false, false, false, false, false, true, false
     | false, false, false, false, false, false, false, true, false
     | false, false, false, false, false, false, false, true, false
     | false, false, false, false, false, false, false, false, true
     | false, false, false, false, false, false, false, false, true
     | false, false, false, false, false, false, false, false, true
     | false, false, false, false, false, false, false, false, true
     | false, false, false, false, false, false, false, true, false
     | false, false, false, false, false, false, false, true, false
     | false, true, false, false, false, false, false, false, false
     | false, true, false, false, false, false, false, false, false
     | false, true, false, false, false, false, false, false, false
     | false, true, false, false, false, false, false, false, false
     | false, true, false, false, false, false, false, false, false
     | false, false, false, false, false, false, false, true, false
     | false, false, false, false, false, false, false, true, false
     | false, false, false, false, false, false, false, true, false
     | false, false, false, false, false, false, false, true, false
     | false, false, false, false, false, false, false, false, true
     | false, false, false, false, false, false, false, false, true
     | false, false, false, false, false, false, false, false, true
     | false, false, false, false, false, false, false, false, true
     | false, false, false, false, false, false, false, false, true
     | false, false, false, false, false, false, false, true, false
     | false, false, false, false, false, false, false, true, false
     | false, false, false, false, false, false, false, true, false
     | false, false, false, false, false, false, false, true, false
     | false, true, false, false, false, false, false, false, false
     | false, true, false, false, false, false, false, false, false
     | false, true, false, false, false, false, false, false, false
     | false, false, false, false, false, false, false, true, false
     | false, false, false, false, false, false, false, true, false
     | false, false, false, false, false, false, false, false, true
     | false, false, false, false, false, false, false, false, true
     | false, false, false, false, false, false, false, false, true
     | false, false, false, false, false, false, false, true, false
     | false, false, false, false, false, false, false, true, false
     | false, true, false, false, false, false, false, false, false
     | false, true, false, false, false, false, false, false, false
     | false, true, false, false, false, false, false, false, false
     | false, true, false, false, false, false, false, false, false
     | false, true, false, false, false, false, false, false, false
     | false, false, false, false, false, false, false, true, false
     | false, false, false, false, false, false, false, true, false
     | false, false, false, false, false, false, false, true, false
     | false, false, false, false, false, false, false, true, false
     | false, false, false, false, false, false, false, false, true
     | false, false, false, false, false, false, false, false, true
     | false, false, false, false, false, false, false, false, true
     | false, false, false, false, false, false, false, false, true
     | false, false, false, false, false, false, false, false, true
     | false, false, false, false, false, false, false, true, false
     | false, false, false, false, false, false, false, true, false |]);
pe_owner2 = [1, 1, 1, 1, 1, 1, 1, 1, 1, 1, 1, 1, 1, 1, 1, 1, 1, 1, 1, 1, 1, 1, 1, 1, 1, 1, 1, 1, 2, 2, 2, 2, 2, 2, 2, 2, 2, 2, 2, 2, 2, 2, 2, 2, 2, 2, 2, 2, 2, 3, 3, 3, 3, 3, 3, 3, 3, 3, 3, 3, 3, 3, 3, 3, 3, 3, 3, 3, 3, 3, 3, 3, 3, 3, 3, 3, 3, 4, 4, 4, 4, 4, 4, 4, 4, 4, 4, 4, 4, 4, 4, 4, 4, 4, 4, 4, 4, 4, 5, 5, 5, 5, 5, 5, 5, 5, 5, 5, 5, 5, 5, 5, 5, 5, 5, 5, 5, 5, 5, 6, 6, 6, 6, 6, 6, 6, 6, 6, 6, 6, 6, 6, 6, 6, 6, 6, 6, 6, 6, 6, 6, 6, 6, 6, 6, 6, 6, 6, 6, 6, 6, 6, 6, 6, 7, 7, 7, 7, 7, 7, 7, 7, 8, 8, 8, 8, 8, 8, 8, 8, 9, 9, 9, 9, 9, 9, 9, 9, 10, 10, 10, 10, 10, 10, 11, 11, 11, 11, 11, 11, 12, 12, 12, 12, 12, 12, 13, 13, 13, 13, 13, 13, 13, 13, 14, 14, 14, 14, 15, 15, 15, 15, 15, 15, 15, 15, 15, 15, 15, 16, 16, 17, 17, 17, 17, 17, 17, 17, 17, 17, 17, 17, 17, 17, 17, 18, 18, 18, 18, 19, 19, 19, 19, 19, 19, 19, 19, 20, 20, 21, 21, 21, 21, 21, 21, 21, 21, 21, 21, 21, 21, 21, 21, 22, 22];
pe_guard2 = array2d(1..265, 1..9,
  [| true, true, true, true, true, true, true, true, true
     | true, true, true, true, true, true, true, true, true
     | true, true, true, true, true, true, true, true, true
     | true, true, true, true, true, true, true, true, true
     | true, true, true, true, true, true, true, true, true
     | true, true, true, true, true, true, true, true, true
     | true, true, true, true, true, true, true, true, true
     | true, true, true, true, true, true, true, true, true
     | true, true, true, true, true, true, true, true, true
     | true, true, true, true, true, true, true, true, true
     | true, true, true, true, true, true, true, true, true
     | true, true, true, true, true, true, true, true, true
     | true, true, true, true, true, true, true, true, true
     | true, true, true, true, true, true, true, true, true
     | true, true, true, true, true, true, true, true, true
     | true, true, true, true, true, true, true, true, true
     | true, true, true, true, true, true, true, true, true
     | true, true, true, true, true, true, true, true, true
     | true, true, true, true, true, true, true, true, true
     | true, true, true, true, true, true, true, true, true
     | true, true, true, true, true, true, true, true, true
     | true, true, true, true, true, true, true, true, true
     | true, true, true, true, true, true, true, true, true
     | true, true, true, true, true, true, true, true, true
     | true, true, true, true, true, true, true, true, true
     | true, true, true, true, true, true, true, true, true
     | true, true, true, true, true, true, true, true, true
     | true, true, true, true, true, true, true, true, true
     | true, true, true, true, true, true, true, true, true
     | true, true, true, true, true, true, true, true, true
     | true, true, true, true, true, true, true, true, true
     | true, true, true, true, true, true, true, true, true
     | true, true, true, true, true, true, true, true, true
     | true, true, true, true, true, true, true, true, true
     | true, true, true, true, true, true, true, true, true
     | true, true, true, true, true, true, true, true, true
     | true, true, true, true, true, true, true, true, true
     | true, true, true, true, true, true, true, true, true
     | true, true, true, true, true, true, true, true, true
     | true, true, true, true, true, true, true, true, true
     | true, true, true, true, true, true, true, true, true
     | true, true, true, true, true, true, true, true, true
     | true, true, true, true, true, true, true, true, true
     | true, true, true, true, true, true, true, true, true
     | true, true, true, true, true, true, true, true, true
     | true, true, true, true, true, true, true, true, true
     | true, true, true, true, true, true, true, true, true
     | true, true, true, true, true, true, true, true, true
     | true, true, true, true, true, true, true, true, true
     | true, true, true, true, true, true, true, true, true
     | true, true, true, true, true, true, true, true, true
     | true, true, true, true, true, true, true, true, true
     | true, true, true, true, true, true, true, true, true
     | true, true, true, true, true, true, true, true, true
     | true, true, true, true, true, true, true, true, true
     | true, true, true, true, true, true, true, true, true
     | true, true, true, true, true, true, true, true, true
     | true, true, true, true, true, true, true, true, true
     | true, true, true, true, true, true, true, true, true
     | true, true, true, true, true, true, true, true, true
     | true, true, true, true, true, true, true, true, true
     | true, true, true, true, true, true, true, true, true
     | true, true, true, true, true, true, true, true, true
     | true, true, true, true, true, true, true, true, true
     | true, true, true, true, true, true, true, true, true
     | true, true, true, true, true, true, true, true, true
     | true, true, true, true, true, true, true, true, true
     | true, true, true, true, true, true, true, true, true
     | true, true, true, true, true, true, true, true, true
     | true, true, true, true, true, true, true, true, true
     | true, true, true, true, true, true, true, true, true
     | true, true, true, true, true, true, true, true, true
     | true, true, true, true, true, true, true, true, true
     | true, true, true, true, true, true, true, true, true
     | true, true, true, true, true, true, true, true, true
     | true, true, true, true, true, true, true, true, true
     | true, true, true, true, true, true, true, true, true
     | true, true, true, true, true, true, true, true, true
     | true, true, true, true, true, true, true, true, true
     | true, true, true, true, true, true, true, true, true
     | true, true, true, true, true, true, true, true, true
     | true, true, true, true, true, true, true, true, true
     | true, true, true, true, true, true, true, true, true
     | true, true, true, true, true, true, true, true, true
     | true, true, true, true, true, true, true, true, true
     | true, true, true, true, true, true, true, true, true
     | true, true, true, true, true, true, true, true, true
     | true, true, true, true, true, true, true, true, true
     | true, true, true, true, true, true, true, true, true
     | true, true, true, true, true, true, true, true, true
     | true, true, true, true, true, true, true, true, true
     | true, true, true, true, true, true, true, true, true
     | true, true, true, true, true, true, true, true, true
     | true, true, true, true, true, true, true, true, true
     | true, true, true, true, true, true, true, true, true
     | true, true, true, true, true, true, true, true, true
     | true, true, true, true, true, true, true, true, true
     | true, true, true, true, true, true, true, true, true
     | true, true, true, true, true, true, true, true, true
     | true, true, true, true, true, true, true, true, true
     | true, true, true, true, true, true, true, true, true
     | true, true, true, true, true, true, true, true, true
     | true, true, true, true, true, true, true, true, true
     | true, true, true, true, true, true, true, true, true
     | true, true, true, true, true, true, true, true, true
     | true, true, true, true, true, true, true, true, true
     | true, true, true, true, true, true, true, true, true
     | true, true, true, true, true, true, true, true, true
     | true, true, true, true, true, true, true, true, true
     | true, true, true, true, true, true, true, true, true
     | true, true, true, true, true, true, true, true, true
     | true, true, true, true, true, true, true, true, true
     | true, true, true, true, true, true, true, true, true
     | true, true, true, true, true, true, true, true, true
     | true, true, true, true, true, true, true, true, true
     | true, true, true, true, true, true, true, true, true
     | true, true, true, true, true, true, true, true, true
     | true, true, true, true, true, true, true, true, true
     | true, true, true, true, true, true, true, true, true
     | true, true, true, true, true, true, true, true, true
     | true, true, true, true, true, true, true, true, true
     | true, true, true, true, true, true, true, true, true
     | true, true, true, true, true, true, true, true, true
     | true, true, true, true, true, true, true, true, true
     | true, true, true, true, true, true, true, true, true
     | true, true, true, true, true, true, true, true, true
     | true, true, true, true, true, true, true, true, true
     | true, true, true, true, true, true, true, true, true
     | true, true, true, true, true, true, true, true, true
     | true, true, true, true, true, true, true, true, true
     | true, true, true, true, true, true, true, true, true
     | true, true, true, true, true, true, true, true, true
     | true, true, true, true, true, true, true, true, true
     | true, true, true, true, true, true, true, true, true
     | true, true, true, true, true, true, true, true, true
     | true, true, true, true, true, true, true, true, true
     | true, true, true, true, true, true, true, true, true
     | true, true, true, true, true, true, true, true, true
     | true, true, true, true, true, true, true, true, true
     | true, true, true, true, true, true, true, true, true
     | true, true, true, true, true, true, true, true, true
     | true, true, true, true, true, true, true, true, true
     | true, true, true, true, true, true, true, true, true
     | true, true, true, true, true, true, true, true, true
     | true, true, true, true, true, true, true, true, true
     | true, true, true, true, true, true, true, true, true
     | true, true, true, true, true, true, true, true, true
     | true, true, true, true, true, true, true, true, true
     | true, true, true, true, true, true, true, true, true
     | true, true, true, true, true, true, true, true, true
     | true, true, true, true, true, true, true, true, true
     | true, true, true, true, true, true, true, true, true
     | true, true, true, true, true, true, true, true, true
     | true, true, true, true, true, true, true, true, true
     | true, true, true, true, true, true, true, true, true
     | true, true, true, true, true, true, true, true, true
     | true, true, true, true, true, true, true, true, true
     | true, true, true, true, true, true, true, true, true
     | true, true, true, true, true, true, true, true, true
     | true, true, true, true, true, true, true, true, true
     | true, true, true, true, true, true, true, true, true
     | true, true, true, true, true, true, true, true, true
     | true, true, true, true, true, true, true, true, true
     | true, true, true, true, true, true, true, true, true
     | true, true, true, true, true, true, true, true, true
     | true, true, true, true, true, true, true, true, true
     | true, true, true, true, true, true, true, true, true
     | true, true, true, true, true, true, true, true, true
     | true, true, true, true, true, true, true, true, true
     | true, true, true, true, true, true, true, true, true
     | true, true, true, true, true, true, true, true, true
     | true, true, true, true, true, true, true, true, true
     | true, true, true, true, true, true, true, true, true
     | true, true, true, true, true, true, true, true, true
     | true, true, true, true, true, true, true, true, true
     | true, true, true, true, true, true, true, true, true
     | true, true, true, true, true, true, true, true, true
     | true, true, true, true, true, true, true, true, true
     | true, true, true, true, true, true, true, true, true
     | true, true, true, true, true, true, true, true, true
     | true, true, true, true, true, true, true, true, true
     | true, true, true, true, true, true, true, true, true
     | true, true, true, true, true, true, true, true, true
     | true, true, true, true, true, true, true, true, true
     | true, true, true, true, true, true, true, true, true
     | true, true, true, true, true, true, true, true, true
     | true, true, true, true, true, true, true, true, true
     | true, true, true, true, true, true, true, true, true
     | true, true, true, true, true, true, true, true, true
     | true, true, true, true, true, true, true, true, true
     | true, true, true, true, true, true, true, true, true
     | true, true, true, true, true, true, true, true, true
     | true, true, true, true, true, true, true, true, true
     | true, true, true, true, true, true, true, true, true
     | true, true, true, true, true, true, true, true, true
     | true, true, true, true, true, true, true, true, true
     | true, true, true, true, true, true, true, true, true
     | true, true, true, true, true, true, true, true, true
     | true, true, true, true, true, true, true, true, true
     | true, true, true, true, true, true, true, true, true
     | true, true, true, true, true, true, true, true, true
     | true, true, true, true, true, true, true, true, true
     | true, true, true, true, true, true, true, true, true
     | true, true, true, true, true, true, true, true, true
     | true, true, true, true, true, true, true, true, true
     | true, true, true, true, true, true, true, true, true
     | true, true, true, true, true, true, true, true, true
     | true, true, true, true, true, true, true, true, true
     | true, true, true, true, true, true, true, true, true
     | true, true, true, true, true, true, true, true, true
     | true, true, true, true, true, true, true, true, true
     | true, true, true, true, true, true, true, true, true
     | true, true, true, true, true, true, true, true, true
     | true, true, true, true, true, true, true, true, true
     | true, true, true, true, true, true, true, true, true
     | true, true, true, true, true, true, true, true, true
     | true, true, true, true, true, true, true, true, true
     | true, true, true, true, true, true, true, true, true
     | true, true, true, true, true, true, true, true, true
     | true, true, true, true, true, true, true, true, true
     | true, true, true, true, true, true, true, true, true
     | true, true, true, true, true, true, true, true, true
     | true, true, true, true, true, true, true, true, true
     | true, true, true, true, true, true, true, true, true
     | true, true, true, true, true, true, true, true, true
     | true, true, true, true, true, true, true, true, true
     | true, true, true, true, true, true, true, true, true
     | true, true, true, true, true, true, true, true, true
     | true, true, true, true, true, true, true, true, true
     | true, true, true, true, true, true, true, true, true
     | true, true, true, true, true, true, true, true, true
     | true, true, true, true, true, true, true, true, true
     | true, true, true, true, true, true, true, true, true
     | true, true, true, true, true, true, true, true, true
     | true, true, true, true, true, true, true, true, true
     | true, true, true, true, true, true, true, true, true
     | true, true, true, true, true, true, true, true, true
     | true, true, true, true, true, true, true, true, true
     | true, true, true, true, true, true, true, true, true
     | true, true, true, true, true, true, true, true, true
     | true, true, true, true, true, true, true, true, true
     | true, true, true, true, true, true, true, true, true
     | true, true, true, true, true, true, true, true, true
     | true, true, true, true, true, true, true, true, true
     | true, true, true, true, true, true, true, true, true
     | true, true, true, true, true, true, true, true, true
     | true, true, true, true, true, true, true, true, true
     | true, true, true, true, true, true, true, true, true
     | true, true, true, true, true, true, true, true, true
     | true, true, true, true, true, true, true, true, true
     | true, true, true, true, true, true, true, true, true
     | true, true, true, true, true, true, true, true, true
     | true, true, true, true, true, true, true, true, true
     | true, true, true, true, true, true, true, true, true
     | true, true, true, true, true, true, true, true, true
     | true, true, true, true, true, true, true, true, true
     | true, true, true, true, true, true, true, true, true
     | true, true, true, true, true, true, true, true, true
     | true, true, true, true, true, true, true, true, true
     | true, true, true, true, true, true, true, true, true
     | true, true, true, true, true, true, true, true, true
     | true, true, true, true, true, true, true, true, true
     | true, true, true, true, true, true, true, true, true
     | true, true, true, true, true, true, true, true, true
     | true, true, true, true, true, true, true, true, true |]);
nPL = 74;
pl_u = [1, 1, 1, 24, 1, 26, 1, 2, 2, 2, 29, 2, 31, 2, 3, 3, 3, 34, 3, 36, 3, 4, 4, 4, 39, 4, 41, 4, 5, 5, 5, 44, 5, 46, 5, 6, 6, 6, 49, 6, 51, 6, 7, 7, 8, 8, 9, 9, 10, 10, 11, 11, 12, 12, 13, 13, 13, 14, 15, 15, 15, 16, 17, 17, 17, 18, 19, 19, 19, 20, 21, 21, 21, 22];
pl_v = [23, 24, 24, 25, 23, 27, 26, 28, 29, 29, 30, 28, 32, 31, 33, 34, 34, 35, 33, 37, 36, 38, 39, 39, 40, 38, 42, 41, 43, 44, 44, 45, 43, 47, 46, 48, 49, 49, 50, 48, 52, 51, 53, 53, 54, 54, 55, 55, 56, 56, 57, 57, 58, 58, 59, 60, 59, 61, 62, 63, 62, 64, 65, 66, 65, 67, 68, 69, 68, 70, 71, 72, 71, 73];
pl_rel = [3, 3, 3, 3, 3, 3, 3, 3, 3, 3, 3, 3, 3, 3, 3, 3, 3, 3, 3, 3, 3, 3, 3, 3, 3, 3, 3, 3, 3, 3, 3, 3, 3, 3, 3, 3, 3, 3, 3, 3, 3, 3, 2, 3, 2, 3, 2, 3, 2, 3, 2, 3, 2, 3, 2, 3, 3, 3, 2, 3, 3, 3, 2, 3, 3, 3, 2, 3, 3, 3, 2, 3, 3, 3];
pl_owner = [1, 1, 1, 1, 1, 1, 1, 2, 2, 2, 2, 2, 2, 2, 3, 3, 3, 3, 3, 3, 3, 4, 4, 4, 4, 4, 4, 4, 5, 5, 5, 5, 5, 5, 5, 6, 6, 6, 6, 6, 6, 6, 7, 7, 8, 8, 9, 9, 10, 10, 11, 11, 12, 12, 13, 13, 13, 14, 15, 15, 15, 16, 17, 17, 17, 18, 19, 19, 19, 20, 21, 21, 21, 22];
pl_guard = array2d(1..74, 1..9,
  [| false, false, true, false, false, false, false, false, false
     | false, false, false, true, false, false, false, false, false
     | false, false, false, false, true, false, false, false, false
     | false, false, false, false, true, false, false, false, false
     | false, false, false, false, false, false, true, false, false
     | false, false, false, false, false, false, true, false, false
     | false, false, false, false, false, false, true, false, false
     | false, false, true, false, false, false, false, false, false
     | false, false, false, true, false, false, false, false, false
     | false, false, false, false, true, false, false, false, false
     | false, false, false, false, true, false, false, false, false
     | false, false, false, false, false, false, true, false, false
     | false, false, false, false, false, false, true, false, false
     | false, false, false, false, false, false, true, false, false
     | false, false, true, false, false, false, false, false, false
     | false, false, false, true, false, false, false, false, false
     | false, false, false, false, true, false, false, false, false
     | false, false, false, false, true, false, false, false, false
     | false, false, false, false, false, false, true, false, false
     | false, false, false, false, false, false, true, false, false
     | false, false, false, false, false, false, true, false, false
     | false, false, true, false, false, false, false, false, false
     | false, false, false, true, false, false, false, false, false
     | false, false, false, false, true, false, false, false, false
     | false, false, false, false, true, false, false, false, false
     | false, false, false, false, false, false, true, false, false
     | false, false, false, false, false, false, true, false, false
     | false, false, false, false, false, false, true, false, false
     | false, false, true, false, false, false, false, false, false
     | false, false, false, true, false, false, false, false, false
     | false, false, false, false, true, false, false, false, false
     | false, false, false, false, true, false, false, false, false
     | false, false, false, false, false, false, true, false, false
     | false, false, false, false, false, false, true, false, false
     | false, false, false, false, false, false, true, false, false
     | false, false, true, false, false, false, false, false, false
     | false, false, false, true, false, false, false, false, false
     | false, false, false, false, true, false, false, false, false
     | false, false, false, false, true, false, false, false, false
     | false, false, false, false, false, false, true, false, false
     | false, false, false, false, false, false, true, false, false
     | false, false, false, false, false, false, true, false, false
     | false, true, false, false, false, false, false, false, false
     | false, false, false, false, false, false, false, false, true
     | false, true, false, false, false, false, false, false, false
     | false, false, false, false, false, false, false, false, true
     | false, true, false, false, false, false, false, false, false
     | false, false, false, false, false, false, false, false, true
     | false, true, false, false, false, false, false, false, false
     | false, false, false, false, false, false, false, false, true
     | false, true, false, false, false, false, false, false, false
     | false, false, false, false, false, false, false, false, true
     | false, true, false, false, false, false, false, false, false
     | false, false, false, false, false, false, false, false, true
     | false, true, false, false, false, false, false, false, false
     | false, false, false, false, false, false, false, true, false
     | false, false, false, false, false, false, false, false, true
     | false, false, false, false, false, false, false, true, false
     | false, true, false, false, false, false, false, false, false
     | false, false, false, false, false, false, false, true, false
     | false, false, false, false, false, false, false, false, true
     | false, false, false, false, false, false, false, true, false
     | false, true, false, false, false, false, false, false, false
     | false, false, false, false, false, false, false, true, false
     | false, false, false, false, false, false, false, false, true
     | false, false, false, false, false, false, false, true, false
     | false, true, false, false, false, false, false, false, false
     | false, false, false, false, false, false, false, true, false
     | false, false, false, false, false, false, false, false, true
     | false, false, false, false, false, false, false, true, false
     | false, true, false, false, false, false, false, false, false
     | false, false, false, false, false, false, false, true, false
     | false, false, false, false, false, false, false, false, true
     | false, false, false, false, false, false, false, true, false |]);

% ---- TDMA communication ----
nCh = 0;
ch_src = [1]; ch_dst = [1]; ch_msgsize = [0]; ch_app = [1];
ch_block = [1]; ch_send = [1]; ch_rec = [1]; ch_slots_needed = [1];
ch_direct_tok = [0];
ch_rounds = array2d(1..1, 0..8, [0, 0, 0, 0, 0, 0, 0, 0, 0]);
tdma_slots = 8;
tdma_cycle_len = 1;
data_per_slot = 32;
max_buf = 4;
ni_capacity = 100000;
nSep = 0;  sep_a = [1];  sep_b = [1];
comm_sil_mode = 0;
comm_actor = [false, false, false, false, false, false, false, false, false, false, false, false, false, false, false, false, false, false, false, false, false, false, false, false, false, false, false, false, false, false, false, false, false, false, false, false, false, false, false, false, false, false, false, false, false, false, false, false, false, false, false, false, false, false, false, false, false, false, false, false, false, false, false, false, false, false, false, false, false, false, false, false, false];
